C F O                                   
   1.00000000000000     
    23.3551497400000017    0.0000000000000000    0.0000000000000000
     0.0000000000000000   25.4059620700000011    0.0000000000000000
     0.0000000000000000    0.0000000000000000   23.2254676499999988
   C    F    O 
     4     7     2
Selective dynamics
Direct
  0.4967001048473567  0.5705268927815356  0.5073320474781490   T   T   T
  0.5226302375748410  0.5145735700279995  0.5090579387387628   T   T   T
  0.4828983956702924  0.4695139098389955  0.4897755867841244   T   T   T
  0.5039438324896198  0.4136789893557571  0.5082218478838418   T   T   T
  0.4734398154230896  0.5802086135210208  0.4555477779687865   T   T   T
  0.4564438132927167  0.5770226004307276  0.5477488689761664   T   T   T
  0.5381958387580719  0.6061593119108505  0.5167746096480063   T   T   T
  0.5701378045646621  0.5158034241204770  0.4755917927907602   T   T   T
  0.5389673362583618  0.5055377231772309  0.5645048448321431   T   T   T
  0.4294574030921140  0.4808169120923721  0.5107621584520708   T   T   T
  0.4786767559260163  0.4718326061697472  0.4308241053224685   T   T   T
  0.5529646285859102  0.4032928807270444  0.4902548030315016   T   T   T
  0.4696279873199431  0.3872891931392497  0.5371536524872349   T   T   T
 
  0.00000000E+00  0.00000000E+00  0.00000000E+00
  0.00000000E+00  0.00000000E+00  0.00000000E+00
  0.00000000E+00  0.00000000E+00  0.00000000E+00
  0.00000000E+00  0.00000000E+00  0.00000000E+00
  0.00000000E+00  0.00000000E+00  0.00000000E+00
  0.00000000E+00  0.00000000E+00  0.00000000E+00
  0.00000000E+00  0.00000000E+00  0.00000000E+00
  0.00000000E+00  0.00000000E+00  0.00000000E+00
  0.00000000E+00  0.00000000E+00  0.00000000E+00
  0.00000000E+00  0.00000000E+00  0.00000000E+00
  0.00000000E+00  0.00000000E+00  0.00000000E+00
  0.00000000E+00  0.00000000E+00  0.00000000E+00
  0.00000000E+00  0.00000000E+00  0.00000000E+00
