B N C F O                               
   1.00000000000000     
     5.0243667044670000   -8.7024973729579997    0.0000000000000000
     5.0243667044670000    8.7024973729579997    0.0000000000000000
     0.0000000000000000    0.0000000000000000   35.1146643855649998
   B    N    C    F    O 
    16    16     3     5     2
Selective dynamics
Direct
  0.1665437965814655  0.0834562911804659  0.5021284122456072   T   T   T
  0.1665325050810555  0.3334483904963456  0.5021563460558799   T   T   T
  0.1665376637957790  0.5834553948458250  0.5021335589693722   T   T   T
  0.1665456616316663  0.8334699807136774  0.5021019443455189   T   T   T
  0.4165694670355094  0.0834789632410631  0.5020894652817067   T   T   T
  0.4165261900264191  0.3334372245500798  0.5021006860538364   T   T   T
  0.4165655409793856  0.5834529600114208  0.5020860533494509   T   T   T
  0.4165629430894948  0.8335256593619107  0.5019070970481078   T   T   T
  0.6666132411587424  0.0834949802819085  0.5020832272333425   T   T   T
  0.6666192773169551  0.3334598212483647  0.5021534477142873   T   T   T
  0.6666291223363485  0.5835100687825870  0.5021925230428212   T   T   T
  0.6666339416927610  0.8335246540755262  0.5020427012090163   T   T   T
  0.9165819180730719  0.0834817670413624  0.5021308358661778   T   T   T
  0.9165852878364570  0.3334653997647382  0.5021612463294316   T   T   T
  0.9165927125536825  0.5834754619100730  0.5021675804853435   T   T   T
  0.9165934651616856  0.8334906246600147  0.5021487398584968   T   T   T
  0.0832373796229164  0.1668063567261829  0.5021453052152082   T   T   T
  0.0832466408423839  0.4168109140948355  0.5021636897315574   T   T   T
  0.0832502398083731  0.6668110019474388  0.5021406803796085   T   T   T
  0.0832352454110332  0.9168053075887017  0.5021308866737660   T   T   T
  0.3332351578779400  0.1668057719903384  0.5021210701852854   T   T   T
  0.3332355798318577  0.4168038886809875  0.5021602084143221   T   T   T
  0.3332676292563433  0.6668359239250541  0.5020979100228302   T   T   T
  0.3332264154988825  0.9168170262727370  0.5020311645805156   T   T   T
  0.5832452099004667  0.1668115112539105  0.5021605646066871   T   T   T
  0.5832276897071111  0.4167965542686192  0.5022937757976860   T   T   T
  0.5832456606560810  0.6668206669290351  0.5021871347528231   T   T   T
  0.5832250742302628  0.9168000440687512  0.5019917827160917   T   T   T
  0.8332471855360060  0.1668091593513366  0.5021240726570455   T   T   T
  0.8332467056357553  0.4168051681753092  0.5021778539355332   T   T   T
  0.8332496607730450  0.6668097209703784  0.5021760404510515   T   T   T
  0.8332497386174804  0.9168120229919061  0.5021225653901934   T   T   T
  0.5644708220121855  0.4472365044089653  0.6533820605011633   T   T   T
  0.5472148880772214  0.3980233234489910  0.6122680788403726   T   T   T
  0.4719414080526628  0.7874828414791413  0.6064356100348066   T   T   T
  0.6994519468613507  0.5764928052618913  0.6585713276431976   T   T   T
  0.5600351128525530  0.3394018384108887  0.6772726823219649   T   T   T
  0.4501319987876503  0.4727165556434378  0.6632415651195469   T   T   T
  0.6618670400425903  0.3816024549702651  0.5990652211148556   T   T   T
  0.4112850664386266  0.2782149488725835  0.6037783459535783   T   T   T
  0.6033565330698819  0.8677489854691703  0.6018958626963782   T   T   T
  0.3404323608848262  0.7067218567547674  0.6106233899775411   T   T   T
 
  0.00000000E+00  0.00000000E+00  0.00000000E+00
  0.00000000E+00  0.00000000E+00  0.00000000E+00
  0.00000000E+00  0.00000000E+00  0.00000000E+00
  0.00000000E+00  0.00000000E+00  0.00000000E+00
  0.00000000E+00  0.00000000E+00  0.00000000E+00
  0.00000000E+00  0.00000000E+00  0.00000000E+00
  0.00000000E+00  0.00000000E+00  0.00000000E+00
  0.00000000E+00  0.00000000E+00  0.00000000E+00
  0.00000000E+00  0.00000000E+00  0.00000000E+00
  0.00000000E+00  0.00000000E+00  0.00000000E+00
  0.00000000E+00  0.00000000E+00  0.00000000E+00
  0.00000000E+00  0.00000000E+00  0.00000000E+00
  0.00000000E+00  0.00000000E+00  0.00000000E+00
  0.00000000E+00  0.00000000E+00  0.00000000E+00
  0.00000000E+00  0.00000000E+00  0.00000000E+00
  0.00000000E+00  0.00000000E+00  0.00000000E+00
  0.00000000E+00  0.00000000E+00  0.00000000E+00
  0.00000000E+00  0.00000000E+00  0.00000000E+00
  0.00000000E+00  0.00000000E+00  0.00000000E+00
  0.00000000E+00  0.00000000E+00  0.00000000E+00
  0.00000000E+00  0.00000000E+00  0.00000000E+00
  0.00000000E+00  0.00000000E+00  0.00000000E+00
  0.00000000E+00  0.00000000E+00  0.00000000E+00
  0.00000000E+00  0.00000000E+00  0.00000000E+00
  0.00000000E+00  0.00000000E+00  0.00000000E+00
  0.00000000E+00  0.00000000E+00  0.00000000E+00
  0.00000000E+00  0.00000000E+00  0.00000000E+00
  0.00000000E+00  0.00000000E+00  0.00000000E+00
  0.00000000E+00  0.00000000E+00  0.00000000E+00
  0.00000000E+00  0.00000000E+00  0.00000000E+00
  0.00000000E+00  0.00000000E+00  0.00000000E+00
  0.00000000E+00  0.00000000E+00  0.00000000E+00
  0.00000000E+00  0.00000000E+00  0.00000000E+00
  0.00000000E+00  0.00000000E+00  0.00000000E+00
  0.00000000E+00  0.00000000E+00  0.00000000E+00
  0.00000000E+00  0.00000000E+00  0.00000000E+00
  0.00000000E+00  0.00000000E+00  0.00000000E+00
  0.00000000E+00  0.00000000E+00  0.00000000E+00
  0.00000000E+00  0.00000000E+00  0.00000000E+00
  0.00000000E+00  0.00000000E+00  0.00000000E+00
  0.00000000E+00  0.00000000E+00  0.00000000E+00
  0.00000000E+00  0.00000000E+00  0.00000000E+00
