B C F H N O                             
   1.00000000000000     
     0.0000000000000000   -8.7025000000000006    0.0000000000000000
    15.0000000000000000    0.0000000000000000    0.0000000000000000
     0.0000000000000000    0.0000000000000000   45.0000000000000000
   B    C    F    H    N    O 
    18     3     5     8    18     6
Selective dynamics
Direct
  0.3083016295945483  0.4862792677436061  0.3887434202330627   T   T   T
  0.3105724093427282  0.4957789166116739  0.4440445665129755   T   T   T
  0.3105356248467282  0.4990303320981558  0.4996918336678394   T   T   T
  0.3106019082452259  0.4995259213694468  0.5553529349120480   T   T   T
  0.3081736898051038  0.4956769049529755  0.6107739575055798   T   T   T
  0.8082901638394412  0.5122169513148792  0.3887746422042423   T   T   T
  0.8106008682583831  0.5017007368463360  0.4440477006384575   T   T   T
  0.8105545498416095  0.4998180225726846  0.4996855860299252   T   T   T
  0.8105532536826916  0.5024506236985535  0.5553357573415778   T   T   T
  0.8092820390830913  0.5113737352028145  0.6108637959928703   T   T   T
  0.0603572005844806  0.4982786907762082  0.4165869856536708   T   T   T
  0.0605743557369456  0.4991402512209173  0.4719696597464958   T   T   T
  0.0605432846579419  0.4998019282511438  0.5273808469242002   T   T   T
  0.0602183149133021  0.5000323540595853  0.5827166929938250   T   T   T
  0.5603625159084573  0.4994780122901333  0.4165981090241619   T   T   T
  0.5605689001013658  0.4987520807158605  0.4719898511633766   T   T   T
  0.5605704536205555  0.5004485012384214  0.5274317919010739   T   T   T
  0.5605006867607168  0.5047497107836398  0.5828603244448838   T   T   T
  0.6432087089791565  0.5689758700372953  0.7552192125697471   T   T   T
  0.5611172618650982  0.5659967107174914  0.7250340744889332   T   T   T
  0.6545212568687451  0.5182764999142038  0.7002251496193517   T   T   T
  0.6594486921224082  0.4870419071804922  0.7667706014273367   T   T   T
  0.5633875894410921  0.6185970556596171  0.7748073953941529   T   T   T
  0.7837791256797099  0.6053763221139239  0.7522720008394701   T   T   T
  0.4232702877554672  0.5242012313214703  0.7296695372762412   T   T   T
  0.5285396415576386  0.6524541634829035  0.7178295624236698   T   T   T
  0.0855394953592997  0.4916536782370435  0.3707246932465601   T   T   T
  0.0836364270865013  0.4975426204293737  0.6284559857523869   T   T   T
  0.5854499272804161  0.5074334036192675  0.3707583447141038   T   T   T
  0.5864070476318303  0.5133078045695977  0.6287284827898125   T   T   T
  0.3141941103131763  0.4724685738860182  0.3449846954080919   T   T   T
  0.8140962052950906  0.5276858187946900  0.3450772605166348   T   T   T
  0.3129876993158107  0.4890702592805928  0.6547109155523991   T   T   T
  0.8152917167510474  0.5308550192927728  0.6550151713035657   T   T   T
  0.1461607283835752  0.4907675163397761  0.3898778785162960   T   T   T
  0.1441033737121189  0.4973989093751158  0.4443531989752243   T   T   T
  0.1440650073951884  0.4992801997552960  0.4996678768524331   T   T   T
  0.1441649222576119  0.4994685553847771  0.5549583841196718   T   T   T
  0.1461310653493263  0.4958665548022084  0.6094746455870336   T   T   T
  0.6461439621180826  0.5078032246580602  0.3899093834505236   T   T   T
  0.6441279168189407  0.4999854552620668  0.4443674741321096   T   T   T
  0.6440576651286833  0.4995196447892412  0.4996964340279972   T   T   T
  0.6440392350334146  0.5026786276566031  0.5550212095652250   T   T   T
  0.6465317921759391  0.5124472294996680  0.6094977936293874   T   T   T
  0.3943718885769633  0.4926353014784247  0.4162557715186199   T   T   T
  0.3940204798865892  0.4979303959711791  0.4718991907440074   T   T   T
  0.3940445782217725  0.4998839129501966  0.5274705699319293   T   T   T
  0.3942485246762501  0.4996605126928001  0.5831839943837807   T   T   T
  0.8943826404453666  0.5049232599290129  0.4162593011581077   T   T   T
  0.8940575077262063  0.4999140398054098  0.4718939766618693   T   T   T
  0.8940393152422430  0.5002461119379198  0.5274460639179216   T   T   T
  0.8942080165262503  0.5041747839261713  0.5830736522390346   T   T   T
  0.3822800466554817  0.4757980927436415  0.3618700969935199   T   T   T
  0.8822174437630886  0.5236064207618530  0.3619400576353215   T   T   T
  0.3817497341730326  0.4915493531581250  0.6379121325614644   T   T   T
  0.8830004832131103  0.5169552252503562  0.6376801772338540   T   T   T
  0.6547829932218637  0.4358666934638434  0.7016074961437799   T   T   T
  0.7194159640050443  0.5702271134354449  0.6823302452631291   T   T   T
 
  0.00000000E+00  0.00000000E+00  0.00000000E+00
  0.00000000E+00  0.00000000E+00  0.00000000E+00
  0.00000000E+00  0.00000000E+00  0.00000000E+00
  0.00000000E+00  0.00000000E+00  0.00000000E+00
  0.00000000E+00  0.00000000E+00  0.00000000E+00
  0.00000000E+00  0.00000000E+00  0.00000000E+00
  0.00000000E+00  0.00000000E+00  0.00000000E+00
  0.00000000E+00  0.00000000E+00  0.00000000E+00
  0.00000000E+00  0.00000000E+00  0.00000000E+00
  0.00000000E+00  0.00000000E+00  0.00000000E+00
  0.00000000E+00  0.00000000E+00  0.00000000E+00
  0.00000000E+00  0.00000000E+00  0.00000000E+00
  0.00000000E+00  0.00000000E+00  0.00000000E+00
  0.00000000E+00  0.00000000E+00  0.00000000E+00
  0.00000000E+00  0.00000000E+00  0.00000000E+00
  0.00000000E+00  0.00000000E+00  0.00000000E+00
  0.00000000E+00  0.00000000E+00  0.00000000E+00
  0.00000000E+00  0.00000000E+00  0.00000000E+00
  0.00000000E+00  0.00000000E+00  0.00000000E+00
  0.00000000E+00  0.00000000E+00  0.00000000E+00
  0.00000000E+00  0.00000000E+00  0.00000000E+00
  0.00000000E+00  0.00000000E+00  0.00000000E+00
  0.00000000E+00  0.00000000E+00  0.00000000E+00
  0.00000000E+00  0.00000000E+00  0.00000000E+00
  0.00000000E+00  0.00000000E+00  0.00000000E+00
  0.00000000E+00  0.00000000E+00  0.00000000E+00
  0.00000000E+00  0.00000000E+00  0.00000000E+00
  0.00000000E+00  0.00000000E+00  0.00000000E+00
  0.00000000E+00  0.00000000E+00  0.00000000E+00
  0.00000000E+00  0.00000000E+00  0.00000000E+00
  0.00000000E+00  0.00000000E+00  0.00000000E+00
  0.00000000E+00  0.00000000E+00  0.00000000E+00
  0.00000000E+00  0.00000000E+00  0.00000000E+00
  0.00000000E+00  0.00000000E+00  0.00000000E+00
  0.00000000E+00  0.00000000E+00  0.00000000E+00
  0.00000000E+00  0.00000000E+00  0.00000000E+00
  0.00000000E+00  0.00000000E+00  0.00000000E+00
  0.00000000E+00  0.00000000E+00  0.00000000E+00
  0.00000000E+00  0.00000000E+00  0.00000000E+00
  0.00000000E+00  0.00000000E+00  0.00000000E+00
  0.00000000E+00  0.00000000E+00  0.00000000E+00
  0.00000000E+00  0.00000000E+00  0.00000000E+00
  0.00000000E+00  0.00000000E+00  0.00000000E+00
  0.00000000E+00  0.00000000E+00  0.00000000E+00
  0.00000000E+00  0.00000000E+00  0.00000000E+00
  0.00000000E+00  0.00000000E+00  0.00000000E+00
  0.00000000E+00  0.00000000E+00  0.00000000E+00
  0.00000000E+00  0.00000000E+00  0.00000000E+00
  0.00000000E+00  0.00000000E+00  0.00000000E+00
  0.00000000E+00  0.00000000E+00  0.00000000E+00
  0.00000000E+00  0.00000000E+00  0.00000000E+00
  0.00000000E+00  0.00000000E+00  0.00000000E+00
  0.00000000E+00  0.00000000E+00  0.00000000E+00
  0.00000000E+00  0.00000000E+00  0.00000000E+00
  0.00000000E+00  0.00000000E+00  0.00000000E+00
  0.00000000E+00  0.00000000E+00  0.00000000E+00
  0.00000000E+00  0.00000000E+00  0.00000000E+00
  0.00000000E+00  0.00000000E+00  0.00000000E+00
