B N C F O                               
   1.00000000000000     
     7.5365500567000003  -13.0537460594369996    0.0000000000000000
     7.5365500567000003   13.0537460594369996    0.0000000000000000
     0.0000000000000000    0.0000000000000000   35.1146643855649998
   B    N    C    F    O 
    36    36     4     7     2
Selective dynamics
Direct
  0.1109740074633976  0.0554745783957244  0.5001906269758152   T   T   T
  0.1109436297410440  0.2221578317063191  0.4997653017603128   T   T   T
  0.1109772810108893  0.3888285799906868  0.4998512066709964   T   T   T
  0.1109574643125200  0.5554483890266795  0.5004204055784456   T   T   T
  0.1109729359320184  0.7221287784716424  0.5006587109562801   T   T   T
  0.1109426482370139  0.8887997369978677  0.5004979300768042   T   T   T
  0.2776774959593524  0.0555709513008793  0.5001799646884990   T   T   T
  0.2776858445902022  0.2222127278819670  0.4990154952863293   T   T   T
  0.2776848063876400  0.3888188539981670  0.4980373230495445   T   T   T
  0.2776713376112241  0.5554912072259555  0.4991444572131769   T   T   T
  0.2776376932723466  0.7221559187319500  0.5002772861655700   T   T   T
  0.2776153972971045  0.8888551058332723  0.5007034881158958   T   T   T
  0.4442864698295494  0.0556243763017434  0.5003635999562164   T   T   T
  0.4443630404235179  0.2223478295863970  0.4991715732918038   T   T   T
  0.4443133993849102  0.3888702320852317  0.4976053440264039   T   T   T
  0.4442467599987410  0.5553902130200186  0.4973172242379391   T   T   T
  0.4442235131731991  0.7220595313976972  0.4993410320510066   T   T   T
  0.4442546514379799  0.8888340875077390  0.5004972165269379   T   T   T
  0.6108740144614444  0.0555309201760323  0.5003756231816823   T   T   T
  0.6108771762016758  0.2222907776748428  0.4994058809948783   T   T   T
  0.6109360999848334  0.3888795957974267  0.4987229853194961   T   T   T
  0.6108452324113642  0.5553643390875038  0.4980336061838884   T   T   T
  0.6108492285941836  0.7219912425773032  0.4987039575227783   T   T   T
  0.6109079854963397  0.8887800051050050  0.5001243254285228   T   T   T
  0.7775330826734645  0.0554318695055613  0.5004564326160974   T   T   T
  0.7775625281426883  0.2221667563578862  0.5000044354435147   T   T   T
  0.7775181844555945  0.3888771458398281  0.4993747327819165   T   T   T
  0.7775046297454224  0.5553425549569866  0.4991692551625135   T   T   T
  0.7775079848108319  0.7219861834529055  0.4993959307224500   T   T   T
  0.7775599201750012  0.8887381634562246  0.5001316965620646   T   T   T
  0.9441961510463273  0.0553955814774056  0.5004499830717890   T   T   T
  0.9442513030777278  0.2221173375343355  0.5003484814691603   T   T   T
  0.9442591462233665  0.3887963867868081  0.5003284444386082   T   T   T
  0.9442615922292887  0.5554756273393195  0.5002776032311758   T   T   T
  0.9442540494076468  0.7220833963544422  0.5001708887418417   T   T   T
  0.9442523330943970  0.8887393098104894  0.5002991701382697   T   T   T
  0.0553355272144955  0.1109908050131807  0.5001938542039923   T   T   T
  0.0553640143976537  0.2777044535274271  0.5000381203829463   T   T   T
  0.0553927117015434  0.4443369658849079  0.5003999740016738   T   T   T
  0.0554163154465996  0.6110269253820135  0.5006281330942173   T   T   T
  0.0554051901853896  0.7776797968593527  0.5005172453561926   T   T   T
  0.0553772542290929  0.9443378959423256  0.5004026092241105   T   T   T
  0.2220589256585939  0.1110454754385444  0.4998955793899711   T   T   T
  0.2219937407730157  0.2776702914491054  0.4988528835357826   T   T   T
  0.2220491078917348  0.4443666785114431  0.4989190063495030   T   T   T
  0.2220835614555483  0.6110396109434291  0.5000602660593856   T   T   T
  0.2220826214764742  0.7777139344684514  0.5006636755105731   T   T   T
  0.2220486749358912  0.9444050479972432  0.5005384599034954   T   T   T
  0.3887268550045988  0.1111254506653552  0.5000321066616280   T   T   T
  0.3886582476687011  0.2777293522622486  0.4983819014705944   T   T   T
  0.3886024808213406  0.4443179174694549  0.4965260909427940   T   T   T
  0.3887062922742999  0.6110060438981506  0.4985064629229115   T   T   T
  0.3887198056466801  0.7776930446193973  0.5001049633425652   T   T   T
  0.3887249246688498  0.9444396728642559  0.5007077083947777   T   T   T
  0.5553722048939989  0.1111057832803439  0.5001511167256183   T   T   T
  0.5553853670502207  0.2777342449541749  0.4986528060012887   T   T   T
  0.5553377639787200  0.4443888906565689  0.4979328983668978   T   T   T
  0.5553151937530814  0.6110142529671947  0.4973173067355248   T   T   T
  0.5553400164433810  0.7776692795669291  0.4994035378725030   T   T   T
  0.5553722623658501  0.9443798954797273  0.5005040246339050   T   T   T
  0.7220082706575326  0.1110124330296571  0.5002621579557882   T   T   T
  0.7220506865983012  0.2777106437139025  0.4994302148498306   T   T   T
  0.7220986302586780  0.4443801702709038  0.4986018974929607   T   T   T
  0.7220159844880953  0.6109821375043154  0.4987043599020708   T   T   T
  0.7220084021451285  0.7776655522373730  0.4994911937925437   T   T   T
  0.7220281057494518  0.9443280284499451  0.5003242507848782   T   T   T
  0.8886480210056149  0.1109780604707353  0.5005406769563550   T   T   T
  0.8887098567812117  0.2776705846644631  0.5002493943844257   T   T   T
  0.8887409694876638  0.4443671404226492  0.5001049289417736   T   T   T
  0.8887294328881481  0.6110260723371894  0.4999687114314639   T   T   T
  0.8887118456047745  0.7776539947443410  0.5000181301878399   T   T   T
  0.8886648147303475  0.9442849715123671  0.5003946762695008   T   T   T
  0.4544578801293255  0.5895217026820845  0.6223647569792874   T   T   T
  0.5000321801228367  0.5298111944757906  0.6026667292952013   T   T   T
  0.5338861138142406  0.4685978148727870  0.6276659876805724   T   T   T
  0.5717916505265848  0.4056715492901191  0.6039380437140878   T   T   T
  0.3683526721852175  0.5266480465796519  0.6412979618883767   T   T   T
  0.5215381993857591  0.6592169592642350  0.6467188269589883   T   T   T
  0.4314646181815931  0.6389276292329598  0.5956707405717410   T   T   T
  0.4273261383610603  0.4642110133932036  0.5779442472034972   T   T   T
  0.5820556521109097  0.5996506474590859  0.5822842624231725   T   T   T
  0.6092501814135005  0.5370034540771087  0.6514655677531138   T   T   T
  0.4525462777241245  0.4059281888398729  0.6505139345937394   T   T   T
  0.5041677599179479  0.3161856597149182  0.5968107208102467   T   T   T
  0.6643535838489214  0.4544964496968973  0.5955109025390612   T   T   T
 
  0.00000000E+00  0.00000000E+00  0.00000000E+00
  0.00000000E+00  0.00000000E+00  0.00000000E+00
  0.00000000E+00  0.00000000E+00  0.00000000E+00
  0.00000000E+00  0.00000000E+00  0.00000000E+00
  0.00000000E+00  0.00000000E+00  0.00000000E+00
  0.00000000E+00  0.00000000E+00  0.00000000E+00
  0.00000000E+00  0.00000000E+00  0.00000000E+00
  0.00000000E+00  0.00000000E+00  0.00000000E+00
  0.00000000E+00  0.00000000E+00  0.00000000E+00
  0.00000000E+00  0.00000000E+00  0.00000000E+00
  0.00000000E+00  0.00000000E+00  0.00000000E+00
  0.00000000E+00  0.00000000E+00  0.00000000E+00
  0.00000000E+00  0.00000000E+00  0.00000000E+00
  0.00000000E+00  0.00000000E+00  0.00000000E+00
  0.00000000E+00  0.00000000E+00  0.00000000E+00
  0.00000000E+00  0.00000000E+00  0.00000000E+00
  0.00000000E+00  0.00000000E+00  0.00000000E+00
  0.00000000E+00  0.00000000E+00  0.00000000E+00
  0.00000000E+00  0.00000000E+00  0.00000000E+00
  0.00000000E+00  0.00000000E+00  0.00000000E+00
  0.00000000E+00  0.00000000E+00  0.00000000E+00
  0.00000000E+00  0.00000000E+00  0.00000000E+00
  0.00000000E+00  0.00000000E+00  0.00000000E+00
  0.00000000E+00  0.00000000E+00  0.00000000E+00
  0.00000000E+00  0.00000000E+00  0.00000000E+00
  0.00000000E+00  0.00000000E+00  0.00000000E+00
  0.00000000E+00  0.00000000E+00  0.00000000E+00
  0.00000000E+00  0.00000000E+00  0.00000000E+00
  0.00000000E+00  0.00000000E+00  0.00000000E+00
  0.00000000E+00  0.00000000E+00  0.00000000E+00
  0.00000000E+00  0.00000000E+00  0.00000000E+00
  0.00000000E+00  0.00000000E+00  0.00000000E+00
  0.00000000E+00  0.00000000E+00  0.00000000E+00
  0.00000000E+00  0.00000000E+00  0.00000000E+00
  0.00000000E+00  0.00000000E+00  0.00000000E+00
  0.00000000E+00  0.00000000E+00  0.00000000E+00
  0.00000000E+00  0.00000000E+00  0.00000000E+00
  0.00000000E+00  0.00000000E+00  0.00000000E+00
  0.00000000E+00  0.00000000E+00  0.00000000E+00
  0.00000000E+00  0.00000000E+00  0.00000000E+00
  0.00000000E+00  0.00000000E+00  0.00000000E+00
  0.00000000E+00  0.00000000E+00  0.00000000E+00
  0.00000000E+00  0.00000000E+00  0.00000000E+00
  0.00000000E+00  0.00000000E+00  0.00000000E+00
  0.00000000E+00  0.00000000E+00  0.00000000E+00
  0.00000000E+00  0.00000000E+00  0.00000000E+00
  0.00000000E+00  0.00000000E+00  0.00000000E+00
  0.00000000E+00  0.00000000E+00  0.00000000E+00
  0.00000000E+00  0.00000000E+00  0.00000000E+00
  0.00000000E+00  0.00000000E+00  0.00000000E+00
  0.00000000E+00  0.00000000E+00  0.00000000E+00
  0.00000000E+00  0.00000000E+00  0.00000000E+00
  0.00000000E+00  0.00000000E+00  0.00000000E+00
  0.00000000E+00  0.00000000E+00  0.00000000E+00
  0.00000000E+00  0.00000000E+00  0.00000000E+00
  0.00000000E+00  0.00000000E+00  0.00000000E+00
  0.00000000E+00  0.00000000E+00  0.00000000E+00
  0.00000000E+00  0.00000000E+00  0.00000000E+00
  0.00000000E+00  0.00000000E+00  0.00000000E+00
  0.00000000E+00  0.00000000E+00  0.00000000E+00
  0.00000000E+00  0.00000000E+00  0.00000000E+00
  0.00000000E+00  0.00000000E+00  0.00000000E+00
  0.00000000E+00  0.00000000E+00  0.00000000E+00
  0.00000000E+00  0.00000000E+00  0.00000000E+00
  0.00000000E+00  0.00000000E+00  0.00000000E+00
  0.00000000E+00  0.00000000E+00  0.00000000E+00
  0.00000000E+00  0.00000000E+00  0.00000000E+00
  0.00000000E+00  0.00000000E+00  0.00000000E+00
  0.00000000E+00  0.00000000E+00  0.00000000E+00
  0.00000000E+00  0.00000000E+00  0.00000000E+00
  0.00000000E+00  0.00000000E+00  0.00000000E+00
  0.00000000E+00  0.00000000E+00  0.00000000E+00
  0.00000000E+00  0.00000000E+00  0.00000000E+00
  0.00000000E+00  0.00000000E+00  0.00000000E+00
  0.00000000E+00  0.00000000E+00  0.00000000E+00
  0.00000000E+00  0.00000000E+00  0.00000000E+00
  0.00000000E+00  0.00000000E+00  0.00000000E+00
  0.00000000E+00  0.00000000E+00  0.00000000E+00
  0.00000000E+00  0.00000000E+00  0.00000000E+00
  0.00000000E+00  0.00000000E+00  0.00000000E+00
  0.00000000E+00  0.00000000E+00  0.00000000E+00
  0.00000000E+00  0.00000000E+00  0.00000000E+00
  0.00000000E+00  0.00000000E+00  0.00000000E+00
  0.00000000E+00  0.00000000E+00  0.00000000E+00
  0.00000000E+00  0.00000000E+00  0.00000000E+00
