B H N O                                 
   1.00000000000000     
     5.0243667044670000   -8.7024973729579997    0.0000000000000000
     5.0243667044670000    8.7024973729579997    0.0000000000000000
     0.0000000000000000    0.0000000000000000   35.1146643855649998
   B    H    N    O 
    16    32    16    16
Selective dynamics
Direct
  0.1529181744588136  0.0766265462839758  0.4982844542265954   T   T   T
  0.1540925098619861  0.3279151809304046  0.4983158599496854   T   T   T
  0.1544405086522952  0.5768890579580626  0.4983055091982161   T   T   T
  0.1536165862194262  0.8260611522177246  0.4982697277708752   T   T   T
  0.4030788903016843  0.0759162943731414  0.4982579273467877   T   T   T
  0.4041389700220808  0.3282340648101014  0.4982487870461397   T   T   T
  0.4040339755020241  0.5773543820079413  0.4983296303661581   T   T   T
  0.4037272319330272  0.8261083750716290  0.4983089781329438   T   T   T
  0.6545765577384779  0.0762772949195557  0.4983007389811555   T   T   T
  0.6545487191059528  0.3282371048101300  0.4982443815500151   T   T   T
  0.6538711602567806  0.5775661370531896  0.4982440635793116   T   T   T
  0.6537533098846705  0.8262894997787060  0.4982938419526839   T   T   T
  0.9036577158289566  0.0766046485178280  0.4983110620429671   T   T   T
  0.9046999821813548  0.3275332088047750  0.4982856341695063   T   T   T
  0.9043328362059904  0.5774353738428417  0.4982373862032951   T   T   T
  0.9032943371860951  0.8264459075910218  0.4982619832972802   T   T   T
  0.2962038765559643  0.6458522327225820  0.5941451121780266   T   T   T
  0.9712753786901854  0.6704004395863065  0.6155983219129716   T   T   T
  0.4674724793976722  0.8145790502647069  0.6369756777992438   T   T   T
  0.7447308208773770  0.7216021139531793  0.6023435719359644   T   T   T
  0.4496264239015133  0.4596141960661216  0.6071911856192820   T   T   T
  0.2820705320488371  0.4325946672839624  0.6035981665729421   T   T   T
  0.2116750431506511  0.1008970757113356  0.5654464209840497   T   T   T
  0.9620164621373837  0.8680436300811013  0.6457580684280854   T   T   T
  0.5356030183528782  0.1188626657200593  0.5652853783433633   T   T   T
  0.8574395657606092  0.4950535714878969  0.6116941869118420   T   T   T
  0.5920049275243863  0.7251312505410200  0.5995667900490176   T   T   T
  0.1183263982946912  0.5439683721239936  0.5983420747880565   T   T   T
  0.2749401465877532  0.2130041236790324  0.6004831356069571   T   T   T
  0.0637717972358947  0.9429232515715217  0.6100569633756231   T   T   T
  0.3956940080313779  0.0825355227072693  0.5914448666324826   T   T   T
  0.4815780175240056  0.9134546573645174  0.6012294200411979   T   T   T
  0.2965988653561026  0.6452140162084109  0.4032396932300613   T   T   T
  0.9696009170460872  0.6694074916636504  0.3836912836376786   T   T   T
  0.4683368365418503  0.8128362992314939  0.3604134608182253   T   T   T
  0.7461431407264280  0.7224412173310993  0.3957505477994672   T   T   T
  0.4511647520974492  0.4599320585628806  0.3903620196082540   T   T   T
  0.2833542817505715  0.4322221988148091  0.3938627772082856   T   T   T
  0.2179914650797002  0.1020161322495407  0.4320492390228010   T   T   T
  0.9626121707519718  0.8666624355290943  0.3524412634783780   T   T   T
  0.5378267147421859  0.1189207239937648  0.4315651988947747   T   T   T
  0.8550012932436671  0.4943514115715582  0.3879526890944853   T   T   T
  0.5928673015964474  0.7249720316905011  0.3982773291743422   T   T   T
  0.1182855677423652  0.5427849168362257  0.3998271212776967   T   T   T
  0.2772286922915093  0.2131563431458698  0.3968265546239321   T   T   T
  0.0651817938436581  0.9428917041468653  0.3879667961526432   T   T   T
  0.3986563955250009  0.0830426203914524  0.4052282124149859   T   T   T
  0.4829363824976446  0.9132504400026220  0.3959060977421837   T   T   T
  0.0705770652047248  0.1602802812098402  0.4983374143961659   T   T   T
  0.0704630593601985  0.4102124911563958  0.4983178280935580   T   T   T
  0.0707314209736066  0.6602933047361376  0.4982731828847431   T   T   T
  0.0706243803658666  0.9103510353195088  0.4982756781216123   T   T   T
  0.3202488076254814  0.1601288076822459  0.4981958935072982   T   T   T
  0.3205578053906839  0.4103143843096268  0.4983045560095880   T   T   T
  0.3209642231235146  0.6605958264136345  0.4983444227637644   T   T   T
  0.3204783151706142  0.9102569171156157  0.4982615630580837   T   T   T
  0.5704944811306272  0.1601648221790257  0.4982685328505295   T   T   T
  0.5705359563049909  0.4103134162627318  0.4982379193333961   T   T   T
  0.5705491924068864  0.6603581043172347  0.4982988853714002   T   T   T
  0.5707096178157920  0.9103528464841179  0.4982988522662752   T   T   T
  0.8206558785905349  0.1602882497995953  0.4982857439677054   T   T   T
  0.8205712415499629  0.4103890660581611  0.4982351526478616   T   T   T
  0.8206090612739584  0.6603295999596666  0.4982344435115381   T   T   T
  0.8206417918692921  0.9102694734636494  0.4982854167081654   T   T   T
  0.4910697014057692  0.0771776533457348  0.5898444620735024   T   T   T
  0.9642935447487174  0.5696313577307368  0.6153254378635979   T   T   T
  0.4728183078091852  0.8146777579746580  0.6095722788137187   T   T   T
  0.6348465902207933  0.6568559340191571  0.5986636865799666   T   T   T
  0.3420055835646648  0.3826564110799808  0.6110162996174927   T   T   T
  0.2096144040325397  0.5436203305602199  0.5887297417156271   T   T   T
  0.2325021788579463  0.1011158409047200  0.5923095739735225   T   T   T
  0.9715380934066806  0.8491561968702492  0.6192655702455566   T   T   T
  0.4941635985715491  0.0779160774810849  0.4068924516671503   T   T   T
  0.9621932429704061  0.5685270330256835  0.3846451565622698   T   T   T
  0.4732871186236476  0.8137673186145969  0.3878276297279552   T   T   T
  0.6362269546339547  0.6571347208195443  0.3992403513877290   T   T   T
  0.3437055876767480  0.3827615031064631  0.3864353006116933   T   T   T
  0.2105667570959066  0.5427524935245980  0.4087459376645866   T   T   T
  0.2354610784017634  0.1013409535217565  0.4050064076267923   T   T   T
  0.9724340296856111  0.8490111453512388  0.3790045260161581   T   T   T
 
  0.00000000E+00  0.00000000E+00  0.00000000E+00
  0.00000000E+00  0.00000000E+00  0.00000000E+00
  0.00000000E+00  0.00000000E+00  0.00000000E+00
  0.00000000E+00  0.00000000E+00  0.00000000E+00
  0.00000000E+00  0.00000000E+00  0.00000000E+00
  0.00000000E+00  0.00000000E+00  0.00000000E+00
  0.00000000E+00  0.00000000E+00  0.00000000E+00
  0.00000000E+00  0.00000000E+00  0.00000000E+00
  0.00000000E+00  0.00000000E+00  0.00000000E+00
  0.00000000E+00  0.00000000E+00  0.00000000E+00
  0.00000000E+00  0.00000000E+00  0.00000000E+00
  0.00000000E+00  0.00000000E+00  0.00000000E+00
  0.00000000E+00  0.00000000E+00  0.00000000E+00
  0.00000000E+00  0.00000000E+00  0.00000000E+00
  0.00000000E+00  0.00000000E+00  0.00000000E+00
  0.00000000E+00  0.00000000E+00  0.00000000E+00
  0.00000000E+00  0.00000000E+00  0.00000000E+00
  0.00000000E+00  0.00000000E+00  0.00000000E+00
  0.00000000E+00  0.00000000E+00  0.00000000E+00
  0.00000000E+00  0.00000000E+00  0.00000000E+00
  0.00000000E+00  0.00000000E+00  0.00000000E+00
  0.00000000E+00  0.00000000E+00  0.00000000E+00
  0.00000000E+00  0.00000000E+00  0.00000000E+00
  0.00000000E+00  0.00000000E+00  0.00000000E+00
  0.00000000E+00  0.00000000E+00  0.00000000E+00
  0.00000000E+00  0.00000000E+00  0.00000000E+00
  0.00000000E+00  0.00000000E+00  0.00000000E+00
  0.00000000E+00  0.00000000E+00  0.00000000E+00
  0.00000000E+00  0.00000000E+00  0.00000000E+00
  0.00000000E+00  0.00000000E+00  0.00000000E+00
  0.00000000E+00  0.00000000E+00  0.00000000E+00
  0.00000000E+00  0.00000000E+00  0.00000000E+00
  0.00000000E+00  0.00000000E+00  0.00000000E+00
  0.00000000E+00  0.00000000E+00  0.00000000E+00
  0.00000000E+00  0.00000000E+00  0.00000000E+00
  0.00000000E+00  0.00000000E+00  0.00000000E+00
  0.00000000E+00  0.00000000E+00  0.00000000E+00
  0.00000000E+00  0.00000000E+00  0.00000000E+00
  0.00000000E+00  0.00000000E+00  0.00000000E+00
  0.00000000E+00  0.00000000E+00  0.00000000E+00
  0.00000000E+00  0.00000000E+00  0.00000000E+00
  0.00000000E+00  0.00000000E+00  0.00000000E+00
  0.00000000E+00  0.00000000E+00  0.00000000E+00
  0.00000000E+00  0.00000000E+00  0.00000000E+00
  0.00000000E+00  0.00000000E+00  0.00000000E+00
  0.00000000E+00  0.00000000E+00  0.00000000E+00
  0.00000000E+00  0.00000000E+00  0.00000000E+00
  0.00000000E+00  0.00000000E+00  0.00000000E+00
  0.00000000E+00  0.00000000E+00  0.00000000E+00
  0.00000000E+00  0.00000000E+00  0.00000000E+00
  0.00000000E+00  0.00000000E+00  0.00000000E+00
  0.00000000E+00  0.00000000E+00  0.00000000E+00
  0.00000000E+00  0.00000000E+00  0.00000000E+00
  0.00000000E+00  0.00000000E+00  0.00000000E+00
  0.00000000E+00  0.00000000E+00  0.00000000E+00
  0.00000000E+00  0.00000000E+00  0.00000000E+00
  0.00000000E+00  0.00000000E+00  0.00000000E+00
  0.00000000E+00  0.00000000E+00  0.00000000E+00
  0.00000000E+00  0.00000000E+00  0.00000000E+00
  0.00000000E+00  0.00000000E+00  0.00000000E+00
  0.00000000E+00  0.00000000E+00  0.00000000E+00
  0.00000000E+00  0.00000000E+00  0.00000000E+00
  0.00000000E+00  0.00000000E+00  0.00000000E+00
  0.00000000E+00  0.00000000E+00  0.00000000E+00
  0.00000000E+00  0.00000000E+00  0.00000000E+00
  0.00000000E+00  0.00000000E+00  0.00000000E+00
  0.00000000E+00  0.00000000E+00  0.00000000E+00
  0.00000000E+00  0.00000000E+00  0.00000000E+00
  0.00000000E+00  0.00000000E+00  0.00000000E+00
  0.00000000E+00  0.00000000E+00  0.00000000E+00
  0.00000000E+00  0.00000000E+00  0.00000000E+00
  0.00000000E+00  0.00000000E+00  0.00000000E+00
  0.00000000E+00  0.00000000E+00  0.00000000E+00
  0.00000000E+00  0.00000000E+00  0.00000000E+00
  0.00000000E+00  0.00000000E+00  0.00000000E+00
  0.00000000E+00  0.00000000E+00  0.00000000E+00
  0.00000000E+00  0.00000000E+00  0.00000000E+00
  0.00000000E+00  0.00000000E+00  0.00000000E+00
  0.00000000E+00  0.00000000E+00  0.00000000E+00
  0.00000000E+00  0.00000000E+00  0.00000000E+00
