B N C F O                               
   1.00000000000000     
     5.0243667044670000   -8.7024973729579997    0.0000000000000000
     5.0243667044670000    8.7024973729579997    0.0000000000000000
     0.0000000000000000    0.0000000000000000   35.1146643855649998
   B    N    C    F    O 
    16    16     3     5     2
Selective dynamics
Direct
  0.1667003195559560  0.0833923469024374  0.5021554197299825   T   T   T
  0.1667079986437047  0.3333822677156639  0.5021421984848432   T   T   T
  0.1666216709906564  0.5833427214536189  0.5022282076111831   T   T   T
  0.1666057272351246  0.8333450896906689  0.5022239734937386   T   T   T
  0.4166474757351041  0.0834506187420287  0.5020610884268827   T   T   T
  0.4167948298710259  0.3334395015489535  0.5019404044911152   T   T   T
  0.4166767484758840  0.5832760706214689  0.5019573442782873   T   T   T
  0.4166219018752089  0.8333708227875369  0.5020001348634122   T   T   T
  0.6665860124583770  0.0833745375562396  0.5021096298224491   T   T   T
  0.6665389494449769  0.3334427099494175  0.5019880674548646   T   T   T
  0.6664801912430665  0.5831509664804108  0.5019449334325934   T   T   T
  0.6665873177390927  0.8332750325378714  0.5019993655050099   T   T   T
  0.9166228991222413  0.0833432983503203  0.5022197917125493   T   T   T
  0.9165978746812764  0.3333816042143934  0.5022159436087530   T   T   T
  0.9165513299800033  0.5833043982305722  0.5021867772806329   T   T   T
  0.9165720032197294  0.8332765814196327  0.5022003251467662   T   T   T
  0.0832955809476135  0.1666827607262070  0.5021848226586358   T   T   T
  0.0833046409810925  0.4166913898542472  0.5022243111806679   T   T   T
  0.0832928019804806  0.6666814910347486  0.5022518689232323   T   T   T
  0.0832810300770717  0.9166704096293965  0.5022226119990131   T   T   T
  0.3332980338097916  0.1666945940897046  0.5019543610325287   T   T   T
  0.3333042875335190  0.4166807100535242  0.5018976224004368   T   T   T
  0.3333249197075785  0.6666966451570828  0.5020855536792405   T   T   T
  0.3332859305351786  0.9166922636242637  0.5021098354401641   T   T   T
  0.5832853231880776  0.1666901711035765  0.5020264100002101   T   T   T
  0.5832936235590513  0.4166565208485749  0.5014809100533404   T   T   T
  0.5832824217157603  0.6666847008595225  0.5018015458060096   T   T   T
  0.5832549564903495  0.9166632727029044  0.5019548548964290   T   T   T
  0.8332770715116801  0.1666772555409889  0.5021972188740967   T   T   T
  0.8332861719812518  0.4166809655815081  0.5020812601514167   T   T   T
  0.8332421807436449  0.6666421299451258  0.5020991059372363   T   T   T
  0.8332704469604614  0.9166664457656648  0.5021457230579377   T   T   T
  0.5635982359005542  0.4476597566322892  0.6514146676528353   T   T   T
  0.5478335787851439  0.4188146147831140  0.6091209770571822   T   T   T
  0.4721945244461765  0.7878185417660415  0.6064720270953601   T   T   T
  0.6997738676050508  0.5755182369623646  0.6597987773084607   T   T   T
  0.5582838165111786  0.3341551146133627  0.6746908101455213   T   T   T
  0.4503697487346329  0.4722030043542961  0.6646628103337666   T   T   T
  0.6636429912212616  0.3768901871364650  0.6021265987637888   T   T   T
  0.4088577280040629  0.2710569025608409  0.6071576894316713   T   T   T
  0.6036476739230437  0.8688063975977605  0.6022625254665678   T   T   T
  0.3405962875108167  0.7069077449961539  0.6105442101131308   T   T   T
 
  0.00000000E+00  0.00000000E+00  0.00000000E+00
  0.00000000E+00  0.00000000E+00  0.00000000E+00
  0.00000000E+00  0.00000000E+00  0.00000000E+00
  0.00000000E+00  0.00000000E+00  0.00000000E+00
  0.00000000E+00  0.00000000E+00  0.00000000E+00
  0.00000000E+00  0.00000000E+00  0.00000000E+00
  0.00000000E+00  0.00000000E+00  0.00000000E+00
  0.00000000E+00  0.00000000E+00  0.00000000E+00
  0.00000000E+00  0.00000000E+00  0.00000000E+00
  0.00000000E+00  0.00000000E+00  0.00000000E+00
  0.00000000E+00  0.00000000E+00  0.00000000E+00
  0.00000000E+00  0.00000000E+00  0.00000000E+00
  0.00000000E+00  0.00000000E+00  0.00000000E+00
  0.00000000E+00  0.00000000E+00  0.00000000E+00
  0.00000000E+00  0.00000000E+00  0.00000000E+00
  0.00000000E+00  0.00000000E+00  0.00000000E+00
  0.00000000E+00  0.00000000E+00  0.00000000E+00
  0.00000000E+00  0.00000000E+00  0.00000000E+00
  0.00000000E+00  0.00000000E+00  0.00000000E+00
  0.00000000E+00  0.00000000E+00  0.00000000E+00
  0.00000000E+00  0.00000000E+00  0.00000000E+00
  0.00000000E+00  0.00000000E+00  0.00000000E+00
  0.00000000E+00  0.00000000E+00  0.00000000E+00
  0.00000000E+00  0.00000000E+00  0.00000000E+00
  0.00000000E+00  0.00000000E+00  0.00000000E+00
  0.00000000E+00  0.00000000E+00  0.00000000E+00
  0.00000000E+00  0.00000000E+00  0.00000000E+00
  0.00000000E+00  0.00000000E+00  0.00000000E+00
  0.00000000E+00  0.00000000E+00  0.00000000E+00
  0.00000000E+00  0.00000000E+00  0.00000000E+00
  0.00000000E+00  0.00000000E+00  0.00000000E+00
  0.00000000E+00  0.00000000E+00  0.00000000E+00
  0.00000000E+00  0.00000000E+00  0.00000000E+00
  0.00000000E+00  0.00000000E+00  0.00000000E+00
  0.00000000E+00  0.00000000E+00  0.00000000E+00
  0.00000000E+00  0.00000000E+00  0.00000000E+00
  0.00000000E+00  0.00000000E+00  0.00000000E+00
  0.00000000E+00  0.00000000E+00  0.00000000E+00
  0.00000000E+00  0.00000000E+00  0.00000000E+00
  0.00000000E+00  0.00000000E+00  0.00000000E+00
  0.00000000E+00  0.00000000E+00  0.00000000E+00
  0.00000000E+00  0.00000000E+00  0.00000000E+00
