B N                                     
   1.00000000000000     
     5.0243667044670000   -8.7024973729579997    0.0000000000000000
     5.0243667044670000    8.7024973729579997    0.0000000000000000
     0.0000000000000000    0.0000000000000000   35.1146643855649998
   B    N 
    16    16
Selective dynamics
Direct
  0.1666671457129993  0.0833338526979972  0.5000000000000000   T   T   T
  0.1666671457129993  0.3333338526979972  0.5000000000000000   T   T   T
  0.1666671457129993  0.5833338526979972  0.5000000000000000   T   T   T
  0.1666671457129993  0.8333338526979972  0.5000000000000000   T   T   T
  0.4166671457129993  0.0833338526979972  0.5000000000000000   T   T   T
  0.4166671457129993  0.3333338526979972  0.5000000000000000   T   T   T
  0.4166671457129993  0.5833338526979972  0.5000000000000000   T   T   T
  0.4166671457129993  0.8333338526979972  0.5000000000000000   T   T   T
  0.6666671457129993  0.0833338526979972  0.5000000000000000   T   T   T
  0.6666671457129993  0.3333338526979972  0.5000000000000000   T   T   T
  0.6666671457129993  0.5833338526979972  0.5000000000000000   T   T   T
  0.6666671457129993  0.8333338526979972  0.5000000000000000   T   T   T
  0.9166671457129993  0.0833338526979972  0.5000000000000000   T   T   T
  0.9166671457129993  0.3333338526979972  0.5000000000000000   T   T   T
  0.9166671457129993  0.5833338526979972  0.5000000000000000   T   T   T
  0.9166671457129993  0.8333338526979972  0.5000000000000000   T   T   T
  0.0833338526979972  0.1666671457129993  0.5000000000000000   T   T   T
  0.0833338526979972  0.4166671457129993  0.5000000000000000   T   T   T
  0.0833338526979972  0.6666671457129993  0.5000000000000000   T   T   T
  0.0833338526979972  0.9166671457129993  0.5000000000000000   T   T   T
  0.3333338526979972  0.1666671457129993  0.5000000000000000   T   T   T
  0.3333338526979972  0.4166671457129993  0.5000000000000000   T   T   T
  0.3333338526979972  0.6666671457129993  0.5000000000000000   T   T   T
  0.3333338526979972  0.9166671457129993  0.5000000000000000   T   T   T
  0.5833338526979972  0.1666671457129993  0.5000000000000000   T   T   T
  0.5833338526979972  0.4166671457129993  0.5000000000000000   T   T   T
  0.5833338526979972  0.6666671457129993  0.5000000000000000   T   T   T
  0.5833338526979972  0.9166671457129993  0.5000000000000000   T   T   T
  0.8333338526979972  0.1666671457129993  0.5000000000000000   T   T   T
  0.8333338526979972  0.4166671457129993  0.5000000000000000   T   T   T
  0.8333338526979972  0.6666671457129993  0.5000000000000000   T   T   T
  0.8333338526979972  0.9166671457129993  0.5000000000000000   T   T   T
 
  0.00000000E+00  0.00000000E+00  0.00000000E+00
  0.00000000E+00  0.00000000E+00  0.00000000E+00
  0.00000000E+00  0.00000000E+00  0.00000000E+00
  0.00000000E+00  0.00000000E+00  0.00000000E+00
  0.00000000E+00  0.00000000E+00  0.00000000E+00
  0.00000000E+00  0.00000000E+00  0.00000000E+00
  0.00000000E+00  0.00000000E+00  0.00000000E+00
  0.00000000E+00  0.00000000E+00  0.00000000E+00
  0.00000000E+00  0.00000000E+00  0.00000000E+00
  0.00000000E+00  0.00000000E+00  0.00000000E+00
  0.00000000E+00  0.00000000E+00  0.00000000E+00
  0.00000000E+00  0.00000000E+00  0.00000000E+00
  0.00000000E+00  0.00000000E+00  0.00000000E+00
  0.00000000E+00  0.00000000E+00  0.00000000E+00
  0.00000000E+00  0.00000000E+00  0.00000000E+00
  0.00000000E+00  0.00000000E+00  0.00000000E+00
  0.00000000E+00  0.00000000E+00  0.00000000E+00
  0.00000000E+00  0.00000000E+00  0.00000000E+00
  0.00000000E+00  0.00000000E+00  0.00000000E+00
  0.00000000E+00  0.00000000E+00  0.00000000E+00
  0.00000000E+00  0.00000000E+00  0.00000000E+00
  0.00000000E+00  0.00000000E+00  0.00000000E+00
  0.00000000E+00  0.00000000E+00  0.00000000E+00
  0.00000000E+00  0.00000000E+00  0.00000000E+00
  0.00000000E+00  0.00000000E+00  0.00000000E+00
  0.00000000E+00  0.00000000E+00  0.00000000E+00
  0.00000000E+00  0.00000000E+00  0.00000000E+00
  0.00000000E+00  0.00000000E+00  0.00000000E+00
  0.00000000E+00  0.00000000E+00  0.00000000E+00
  0.00000000E+00  0.00000000E+00  0.00000000E+00
  0.00000000E+00  0.00000000E+00  0.00000000E+00
  0.00000000E+00  0.00000000E+00  0.00000000E+00
