B N C F O                               
   1.00000000000000     
     7.5365500567000003  -13.0537460594369996    0.0000000000000000
     7.5365500567000003   13.0537460594369996    0.0000000000000000
     0.0000000000000000    0.0000000000000000   35.1146643855649998
   B    N    C    F    O 
    36    36     3     5     2
Selective dynamics
Direct
  0.1110909924471457  0.0555682240950475  0.5001742680525894   T   T   T
  0.1111198612446387  0.2222447945535251  0.5001915478665140   T   T   T
  0.1111498935232760  0.3888942884480286  0.5000123784057209   T   T   T
  0.1111331073363502  0.5555457278281395  0.5001928732008949   T   T   T
  0.1111014478247583  0.7222022750957748  0.5001343215261684   T   T   T
  0.1110890769406936  0.8888857335092268  0.5000334338042407   T   T   T
  0.2777516769551411  0.0555449866504887  0.5000725309395122   T   T   T
  0.2777836465863075  0.2222431130669094  0.5000040842426827   T   T   T
  0.2778458217482438  0.3889437120917520  0.4998542128537622   T   T   T
  0.2778510488863049  0.5555126693824874  0.4998590503356368   T   T   T
  0.2777755696414701  0.7221576996554830  0.5002487645926337   T   T   T
  0.2777516639203412  0.8888499831911219  0.5001440042561640   T   T   T
  0.4443977631162426  0.0555067890648715  0.5001777514052748   T   T   T
  0.4444072090994737  0.2222168791857797  0.4997668356002904   T   T   T
  0.4444608291963803  0.3889038102046385  0.4989371644651186   T   T   T
  0.4444242061461736  0.5555619683906770  0.4993068674916046   T   T   T
  0.4444276797977267  0.7220783430304323  0.4998954787558532   T   T   T
  0.4443921244097027  0.8887908148074501  0.5002319021809711   T   T   T
  0.6110485577121594  0.0554930320196405  0.5001576032220001   T   T   T
  0.6110662193809944  0.2222026631887388  0.5001038716453152   T   T   T
  0.6110672952504714  0.3889089951680731  0.4991857875834285   T   T   T
  0.6110755765594433  0.5555270109117032  0.4986924230804846   T   T   T
  0.6109987361708988  0.7220980241628894  0.4997044846079248   T   T   T
  0.6110444855222568  0.8887815419867735  0.5000504038580544   T   T   T
  0.7777306832948128  0.0555157591409028  0.5000508109076236   T   T   T
  0.7777392702730026  0.2222021342424938  0.5001059711253504   T   T   T
  0.7777566205596855  0.3888914314851633  0.5000682319264271   T   T   T
  0.7777541596729947  0.5555730954246698  0.4995392036365800   T   T   T
  0.7777262100562723  0.7221832764900853  0.4997298850172598   T   T   T
  0.7777092002504133  0.8888245558684389  0.5001412888305623   T   T   T
  0.9444092571790392  0.0555495612679593  0.5001245019594975   T   T   T
  0.9444302169904262  0.2222223650480828  0.5000272197568378   T   T   T
  0.9444385650863438  0.3888928911581928  0.5001251213460733   T   T   T
  0.9444409074079729  0.5555620289362295  0.5001291052797185   T   T   T
  0.9444253829703229  0.7222237595153160  0.4999658693005955   T   T   T
  0.9444033416674031  0.8888810019915070  0.5001012609440423   T   T   T
  0.0555307928888382  0.1111183351497331  0.5002156986085424   T   T   T
  0.0555370572631873  0.2777680592356901  0.5000807363642323   T   T   T
  0.0555480152979584  0.4444289176592164  0.5001010504641812   T   T   T
  0.0555510490179287  0.6110958545124205  0.5002201816910841   T   T   T
  0.0555398284644895  0.7777703889491150  0.5000135380788109   T   T   T
  0.0555262321591456  0.9444470352510095  0.5000947295961282   T   T   T
  0.2222058377977945  0.1111132557940664  0.5001690546175368   T   T   T
  0.2222335012447800  0.2777942485431311  0.5001860966966873   T   T   T
  0.2222089142203103  0.4443978325779270  0.4998030594170118   T   T   T
  0.2222224255292318  0.6110605520790315  0.5002020389785926   T   T   T
  0.2222096244474230  0.7777374652288458  0.5002157321152865   T   T   T
  0.2221969158210371  0.9444259135755431  0.5000437657351569   T   T   T
  0.3888606535186767  0.1110902579065325  0.5000669236979363   T   T   T
  0.3888786255952326  0.2777746229425091  0.4994930316427570   T   T   T
  0.3889294997978183  0.4444240006372624  0.4992476432665995   T   T   T
  0.3888617610730165  0.6110582844809116  0.4993638431550380   T   T   T
  0.3888717349501221  0.7777003816732204  0.5002477472629181   T   T   T
  0.3888544508141365  0.9443904303112802  0.5002293284118196   T   T   T
  0.5555077919032172  0.1110782570716822  0.5002388971316236   T   T   T
  0.5555242114155163  0.2777769233472824  0.4997447031124054   T   T   T
  0.5555573156300539  0.4444215167904630  0.4983342346964150   T   T   T
  0.5555411718395789  0.6110362477951554  0.4990229623564133   T   T   T
  0.5555347583208743  0.7777232656445889  0.4998056578312315   T   T   T
  0.5555027461364475  0.9443809927085738  0.5001585134137585   T   T   T
  0.7221695857980990  0.1110777654776669  0.5000646137390419   T   T   T
  0.7221815343356326  0.2777680564343967  0.5002125512036812   T   T   T
  0.7221938165232444  0.4444487864834485  0.4996452354248504   T   T   T
  0.7222111660706148  0.6111044275767767  0.4990964416400843   T   T   T
  0.7221574703042890  0.7777161987799346  0.5000032263483760   T   T   T
  0.7221740381081290  0.9443997306713854  0.5001177783896651   T   T   T
  0.8888483732824284  0.1111018910723729  0.5000089379452959   T   T   T
  0.8888576908885142  0.2777702148816630  0.5000423691282947   T   T   T
  0.8888673927576818  0.4444443386336019  0.5002151631442189   T   T   T
  0.8888749762614765  0.6111115213675475  0.4999242304111178   T   T   T
  0.8888571598998709  0.7777689375029624  0.4999834214144059   T   T   T
  0.8888386868889810  0.9444265092864228  0.5001846548230233   T   T   T
  0.5449137953311904  0.4685233699558182  0.6045172983119258   T   T   T
  0.4936017309279777  0.5148685820779875  0.6287336670250667   T   T   T
  0.4376904104054518  0.5597446051419013  0.6052867179403094   T   T   T
  0.6164895491824538  0.5397531898268753  0.5815572721268722   T   T   T
  0.5909952452207676  0.4306614858206501  0.6266733819766657   T   T   T
  0.4752147680425054  0.3916071335324531  0.5828410873078127   T   T   T
  0.4273993955709656  0.4388157050298176  0.6525932131433265   T   T   T
  0.5689376580950949  0.5883838090801987  0.6509638088439544   T   T   T
  0.4916061096786564  0.6511228051564046  0.5955710320904046   T   T   T
  0.3456562617108432  0.4993189747698210  0.5982895114389351   T   T   T
 
  0.00000000E+00  0.00000000E+00  0.00000000E+00
  0.00000000E+00  0.00000000E+00  0.00000000E+00
  0.00000000E+00  0.00000000E+00  0.00000000E+00
  0.00000000E+00  0.00000000E+00  0.00000000E+00
  0.00000000E+00  0.00000000E+00  0.00000000E+00
  0.00000000E+00  0.00000000E+00  0.00000000E+00
  0.00000000E+00  0.00000000E+00  0.00000000E+00
  0.00000000E+00  0.00000000E+00  0.00000000E+00
  0.00000000E+00  0.00000000E+00  0.00000000E+00
  0.00000000E+00  0.00000000E+00  0.00000000E+00
  0.00000000E+00  0.00000000E+00  0.00000000E+00
  0.00000000E+00  0.00000000E+00  0.00000000E+00
  0.00000000E+00  0.00000000E+00  0.00000000E+00
  0.00000000E+00  0.00000000E+00  0.00000000E+00
  0.00000000E+00  0.00000000E+00  0.00000000E+00
  0.00000000E+00  0.00000000E+00  0.00000000E+00
  0.00000000E+00  0.00000000E+00  0.00000000E+00
  0.00000000E+00  0.00000000E+00  0.00000000E+00
  0.00000000E+00  0.00000000E+00  0.00000000E+00
  0.00000000E+00  0.00000000E+00  0.00000000E+00
  0.00000000E+00  0.00000000E+00  0.00000000E+00
  0.00000000E+00  0.00000000E+00  0.00000000E+00
  0.00000000E+00  0.00000000E+00  0.00000000E+00
  0.00000000E+00  0.00000000E+00  0.00000000E+00
  0.00000000E+00  0.00000000E+00  0.00000000E+00
  0.00000000E+00  0.00000000E+00  0.00000000E+00
  0.00000000E+00  0.00000000E+00  0.00000000E+00
  0.00000000E+00  0.00000000E+00  0.00000000E+00
  0.00000000E+00  0.00000000E+00  0.00000000E+00
  0.00000000E+00  0.00000000E+00  0.00000000E+00
  0.00000000E+00  0.00000000E+00  0.00000000E+00
  0.00000000E+00  0.00000000E+00  0.00000000E+00
  0.00000000E+00  0.00000000E+00  0.00000000E+00
  0.00000000E+00  0.00000000E+00  0.00000000E+00
  0.00000000E+00  0.00000000E+00  0.00000000E+00
  0.00000000E+00  0.00000000E+00  0.00000000E+00
  0.00000000E+00  0.00000000E+00  0.00000000E+00
  0.00000000E+00  0.00000000E+00  0.00000000E+00
  0.00000000E+00  0.00000000E+00  0.00000000E+00
  0.00000000E+00  0.00000000E+00  0.00000000E+00
  0.00000000E+00  0.00000000E+00  0.00000000E+00
  0.00000000E+00  0.00000000E+00  0.00000000E+00
  0.00000000E+00  0.00000000E+00  0.00000000E+00
  0.00000000E+00  0.00000000E+00  0.00000000E+00
  0.00000000E+00  0.00000000E+00  0.00000000E+00
  0.00000000E+00  0.00000000E+00  0.00000000E+00
  0.00000000E+00  0.00000000E+00  0.00000000E+00
  0.00000000E+00  0.00000000E+00  0.00000000E+00
  0.00000000E+00  0.00000000E+00  0.00000000E+00
  0.00000000E+00  0.00000000E+00  0.00000000E+00
  0.00000000E+00  0.00000000E+00  0.00000000E+00
  0.00000000E+00  0.00000000E+00  0.00000000E+00
  0.00000000E+00  0.00000000E+00  0.00000000E+00
  0.00000000E+00  0.00000000E+00  0.00000000E+00
  0.00000000E+00  0.00000000E+00  0.00000000E+00
  0.00000000E+00  0.00000000E+00  0.00000000E+00
  0.00000000E+00  0.00000000E+00  0.00000000E+00
  0.00000000E+00  0.00000000E+00  0.00000000E+00
  0.00000000E+00  0.00000000E+00  0.00000000E+00
  0.00000000E+00  0.00000000E+00  0.00000000E+00
  0.00000000E+00  0.00000000E+00  0.00000000E+00
  0.00000000E+00  0.00000000E+00  0.00000000E+00
  0.00000000E+00  0.00000000E+00  0.00000000E+00
  0.00000000E+00  0.00000000E+00  0.00000000E+00
  0.00000000E+00  0.00000000E+00  0.00000000E+00
  0.00000000E+00  0.00000000E+00  0.00000000E+00
  0.00000000E+00  0.00000000E+00  0.00000000E+00
  0.00000000E+00  0.00000000E+00  0.00000000E+00
  0.00000000E+00  0.00000000E+00  0.00000000E+00
  0.00000000E+00  0.00000000E+00  0.00000000E+00
  0.00000000E+00  0.00000000E+00  0.00000000E+00
  0.00000000E+00  0.00000000E+00  0.00000000E+00
  0.00000000E+00  0.00000000E+00  0.00000000E+00
  0.00000000E+00  0.00000000E+00  0.00000000E+00
  0.00000000E+00  0.00000000E+00  0.00000000E+00
  0.00000000E+00  0.00000000E+00  0.00000000E+00
  0.00000000E+00  0.00000000E+00  0.00000000E+00
  0.00000000E+00  0.00000000E+00  0.00000000E+00
  0.00000000E+00  0.00000000E+00  0.00000000E+00
  0.00000000E+00  0.00000000E+00  0.00000000E+00
  0.00000000E+00  0.00000000E+00  0.00000000E+00
  0.00000000E+00  0.00000000E+00  0.00000000E+00
