B N C F O                               
   1.00000000000000     
     5.0243667044670000   -8.7024973729579997    0.0000000000000000
     5.0243667044670000    8.7024973729579997    0.0000000000000000
     0.0000000000000000    0.0000000000000000   35.1146643855649998
   B    N    C    F    O 
    16    16     3     5     2
Selective dynamics
Direct
  0.1666586434353204  0.0833287817642310  0.5000430758306571   T   T   T
  0.1666839279554749  0.3333438104893934  0.5000621590459051   T   T   T
  0.1667014021181787  0.5833482969543888  0.5000253511980350   T   T   T
  0.1666644612080917  0.8333293631981904  0.5000300931482119   T   T   T
  0.4166602739193917  0.0833237084684958  0.5000468935021715   T   T   T
  0.4166651922718347  0.3333507975425266  0.5000871481438302   T   T   T
  0.4166888454654883  0.5833626224424208  0.5000698860983012   T   T   T
  0.4166677159440071  0.8333006293649980  0.5000276249747857   T   T   T
  0.6666507623529420  0.0832991664249564  0.5000418212789672   T   T   T
  0.6666539423835465  0.3333383609825171  0.5000721711968610   T   T   T
  0.6666360353367077  0.5833563290769246  0.5000853470351461   T   T   T
  0.6666271605095471  0.8332719316819798  0.5000658143841645   T   T   T
  0.9166490024134323  0.0833048651625620  0.5000396572112148   T   T   T
  0.9166712264555517  0.3333318168709894  0.5000405301629078   T   T   T
  0.9166565493374009  0.5833438151826332  0.5000544463521374   T   T   T
  0.9166385355620699  0.8333221346858365  0.5000525021512163   T   T   T
  0.0833286623262305  0.1666618886638001  0.5000259371300241   T   T   T
  0.0833331556865669  0.4166650041637531  0.5000211272457050   T   T   T
  0.0833295015223499  0.6666648903463908  0.5000146000645207   T   T   T
  0.0833266953101569  0.9166629775915422  0.5000149664947842   T   T   T
  0.3333284276650805  0.1666620824395584  0.5000406547955422   T   T   T
  0.3333315483067331  0.4166631541824115  0.5000554537353805   T   T   T
  0.3333250221531356  0.6666678160710627  0.4999550213211870   T   T   T
  0.3333300288403037  0.9166625332621735  0.5000120224497913   T   T   T
  0.5833295843930157  0.1666630908952655  0.5000343957655898   T   T   T
  0.5833246737476855  0.4166634211463466  0.5000685733950054   T   T   T
  0.5833131062400438  0.6666448215321011  0.4999651505750526   T   T   T
  0.5833292731020185  0.9166577575627318  0.5000150673683601   T   T   T
  0.8333292102472700  0.1666620253472547  0.5000185935622333   T   T   T
  0.8333283762633067  0.4166642413424737  0.5000383935497559   T   T   T
  0.8333249774540894  0.6666625251160889  0.5000411658053764   T   T   T
  0.8333209168340764  0.9166569402677253  0.5000224627951010   T   T   T
  0.5586670162479073  0.4711558699224334  0.6727487562484498   T   T   T
  0.5304662442501075  0.4757347359870007  0.6299429359473858   T   T   T
  0.5136854298405062  0.6158854432005321  0.6174740790807061   T   T   T
  0.6913880952591099  0.5942503756776257  0.6836224748340531   T   T   T
  0.5658292226931817  0.3446004455780984  0.6819826660381295   T   T   T
  0.4439388654855778  0.4687580014958713  0.6930905872961759   T   T   T
  0.6504998715027674  0.4745258110645503  0.6116647729812621   T   T   T
  0.4019006573369539  0.3383204768316933  0.6215706762039406   T   T   T
  0.6384561532725497  0.7363538632246674  0.6124561928286431   T   T   T
  0.3789132316052119  0.5891258149627523  0.6151440026323255   T   T   T
 
  0.00000000E+00  0.00000000E+00  0.00000000E+00
  0.00000000E+00  0.00000000E+00  0.00000000E+00
  0.00000000E+00  0.00000000E+00  0.00000000E+00
  0.00000000E+00  0.00000000E+00  0.00000000E+00
  0.00000000E+00  0.00000000E+00  0.00000000E+00
  0.00000000E+00  0.00000000E+00  0.00000000E+00
  0.00000000E+00  0.00000000E+00  0.00000000E+00
  0.00000000E+00  0.00000000E+00  0.00000000E+00
  0.00000000E+00  0.00000000E+00  0.00000000E+00
  0.00000000E+00  0.00000000E+00  0.00000000E+00
  0.00000000E+00  0.00000000E+00  0.00000000E+00
  0.00000000E+00  0.00000000E+00  0.00000000E+00
  0.00000000E+00  0.00000000E+00  0.00000000E+00
  0.00000000E+00  0.00000000E+00  0.00000000E+00
  0.00000000E+00  0.00000000E+00  0.00000000E+00
  0.00000000E+00  0.00000000E+00  0.00000000E+00
  0.00000000E+00  0.00000000E+00  0.00000000E+00
  0.00000000E+00  0.00000000E+00  0.00000000E+00
  0.00000000E+00  0.00000000E+00  0.00000000E+00
  0.00000000E+00  0.00000000E+00  0.00000000E+00
  0.00000000E+00  0.00000000E+00  0.00000000E+00
  0.00000000E+00  0.00000000E+00  0.00000000E+00
  0.00000000E+00  0.00000000E+00  0.00000000E+00
  0.00000000E+00  0.00000000E+00  0.00000000E+00
  0.00000000E+00  0.00000000E+00  0.00000000E+00
  0.00000000E+00  0.00000000E+00  0.00000000E+00
  0.00000000E+00  0.00000000E+00  0.00000000E+00
  0.00000000E+00  0.00000000E+00  0.00000000E+00
  0.00000000E+00  0.00000000E+00  0.00000000E+00
  0.00000000E+00  0.00000000E+00  0.00000000E+00
  0.00000000E+00  0.00000000E+00  0.00000000E+00
  0.00000000E+00  0.00000000E+00  0.00000000E+00
  0.00000000E+00  0.00000000E+00  0.00000000E+00
  0.00000000E+00  0.00000000E+00  0.00000000E+00
  0.00000000E+00  0.00000000E+00  0.00000000E+00
  0.00000000E+00  0.00000000E+00  0.00000000E+00
  0.00000000E+00  0.00000000E+00  0.00000000E+00
  0.00000000E+00  0.00000000E+00  0.00000000E+00
  0.00000000E+00  0.00000000E+00  0.00000000E+00
  0.00000000E+00  0.00000000E+00  0.00000000E+00
  0.00000000E+00  0.00000000E+00  0.00000000E+00
  0.00000000E+00  0.00000000E+00  0.00000000E+00
