B N C F O                               
   1.00000000000000     
     7.5365500567000003  -13.0537460594369996    0.0000000000000000
     7.5365500567000003   13.0537460594369996    0.0000000000000000
     0.0000000000000000    0.0000000000000000   35.1146643855649998
   B    N    C    F    O 
    36    36     5     9     2
Selective dynamics
Direct
  0.1096073097015317  0.0525888046295607  0.4954674244457191   T   T   T
  0.1096210038735240  0.2192713894242477  0.4953235534452470   T   T   T
  0.1096618435656458  0.3859600574530833  0.4951941663262087   T   T   T
  0.1096683973684241  0.5526162301571932  0.4952604326374210   T   T   T
  0.1096026381430294  0.7192301473491552  0.4954323831559847   T   T   T
  0.1095873305469942  0.8858927918032579  0.4955084922341118   T   T   T
  0.2762865108466819  0.0525993255650274  0.4953105590870595   T   T   T
  0.2763037595191155  0.2193054473777128  0.4951309102663798   T   T   T
  0.2763182727635752  0.3859984634032737  0.4948210527439470   T   T   T
  0.2763734981593681  0.5526442280553799  0.4949113928245119   T   T   T
  0.2763099794558415  0.7192266524969682  0.4950307099454242   T   T   T
  0.2762444991622799  0.8858773433109923  0.4953225036076223   T   T   T
  0.4429116102963673  0.0525296995055139  0.4952502659503942   T   T   T
  0.4429744537536142  0.2192944520474501  0.4949644700803691   T   T   T
  0.4429329863071613  0.3860137819210792  0.4946196649413598   T   T   T
  0.4428799206392831  0.5526184255295020  0.4944632155846440   T   T   T
  0.4428773745841224  0.7191173480383577  0.4950375297634962   T   T   T
  0.4428705621462927  0.8857744589853321  0.4951288362288398   T   T   T
  0.6095509842773005  0.0524888629704362  0.4953219588704859   T   T   T
  0.6095701738000568  0.2192310805437516  0.4951067680609958   T   T   T
  0.6095671697413745  0.3859538018712941  0.4947571586329896   T   T   T
  0.6095312992020251  0.5526404659025966  0.4946229942445017   T   T   T
  0.6094652581596753  0.7191720746242184  0.4947820665680002   T   T   T
  0.6095176764222198  0.8857556539957883  0.4950981356424713   T   T   T
  0.7762310965488182  0.0524934000157645  0.4954049665118314   T   T   T
  0.7762544623666275  0.2192013468752713  0.4954452179786050   T   T   T
  0.7762491064166284  0.3859019971316012  0.4953120171704450   T   T   T
  0.7762244675638876  0.5525768772381396  0.4952172546968641   T   T   T
  0.7762203214053816  0.7192137440749726  0.4952191395794433   T   T   T
  0.7762167838312731  0.8858266443038874  0.4952883573802732   T   T   T
  0.9429131882060013  0.0525540249209616  0.4955022035635985   T   T   T
  0.9429439012894669  0.2192487249439758  0.4954696068882253   T   T   T
  0.9429703552442964  0.3859406894297782  0.4955015659216361   T   T   T
  0.9429460921588598  0.5525886018327127  0.4955346853257849   T   T   T
  0.9429129424902664  0.7192330791741750  0.4954948154538446   T   T   T
  0.9429120982884672  0.8858835151982872  0.4955046181809356   T   T   T
  0.0540329566762520  0.1081248404830604  0.4954814591617179   T   T   T
  0.0540360370359217  0.2747955958566132  0.4953302458070618   T   T   T
  0.0540410025152518  0.4414728200160682  0.4953489735362899   T   T   T
  0.0540224956792994  0.6081228725458007  0.4954713890990347   T   T   T
  0.0540151949790627  0.7747745227531174  0.4955374763593174   T   T   T
  0.0540294933831081  0.9414504226610071  0.4955560140306547   T   T   T
  0.2207290508207607  0.1081578041366014  0.4953263567013325   T   T   T
  0.2207185003003169  0.2748108422482643  0.4951103761896217   T   T   T
  0.2206880746110130  0.4414544287762946  0.4948892009879260   T   T   T
  0.2206817723056380  0.6081277494372199  0.4949517808621451   T   T   T
  0.2206743392679429  0.7747847919859838  0.4952538675833164   T   T   T
  0.2207011247913566  0.9414727673507142  0.4954242887373599   T   T   T
  0.3873976887546438  0.1081468208507720  0.4951814707505945   T   T   T
  0.3874175448857607  0.2748392223684341  0.4949453122752878   T   T   T
  0.3873536245932129  0.4414517178159600  0.4943744864975903   T   T   T
  0.3873377713523787  0.6080698053349713  0.4945549270834602   T   T   T
  0.3873403194132253  0.7747729957192645  0.4948865220051847   T   T   T
  0.3873504528471032  0.9414365437551110  0.4952705515586462   T   T   T
  0.5540297378292948  0.1081034760719355  0.4952705662056056   T   T   T
  0.5540633791584773  0.2748191930495172  0.4947658188347804   T   T   T
  0.5540589862718204  0.4415270462007821  0.4945266475465674   T   T   T
  0.5540131748556070  0.6081202356654157  0.4943049577606488   T   T   T
  0.5540385822490684  0.7747807502397199  0.4947860906291869   T   T   T
  0.5540211907594786  0.9414172212087130  0.4952072223118713   T   T   T
  0.7206906232644582  0.1080726465342145  0.4954137998122859   T   T   T
  0.7206975965286980  0.2747712331085653  0.4953041713904457   T   T   T
  0.7206832999606786  0.4414554491312129  0.4950520135808065   T   T   T
  0.7206946338577485  0.6081190279737363  0.4950401398131584   T   T   T
  0.7206835768383121  0.7747479653594586  0.4951115299821263   T   T   T
  0.7207013537203456  0.9414088619072031  0.4952401032075369   T   T   T
  0.8873590804598408  0.1081037527912834  0.4954998595099412   T   T   T
  0.8873688328501440  0.2747885387899220  0.4955164958884170   T   T   T
  0.8873660148776494  0.4414665530562301  0.4955471475486458   T   T   T
  0.8873477852360705  0.6081150459642004  0.4954982052695176   T   T   T
  0.8873552468228780  0.7747673248313066  0.4954360263609484   T   T   T
  0.8873583431810996  0.9414295137386985  0.4954812354074459   T   T   T
  0.5993083317163048  0.4222589785057732  0.6053605608916710   T   T   T
  0.5406648110718028  0.4630483645627925  0.6290865201637936   T   T   T
  0.4969435778650668  0.5208886807380655  0.6064820183065331   T   T   T
  0.4541640483172230  0.5768011388764465  0.6304890178138690   T   T   T
  0.3913932519152145  0.6142035753304442  0.6063818690361792   T   T   T
  0.6828367958340011  0.4982794289303147  0.5888609990587178   T   T   T
  0.5385037906101693  0.3575206825952404  0.5783624144382070   T   T   T
  0.4627223520638379  0.3804775508252832  0.6463990426174075   T   T   T
  0.6060734123692674  0.5258403410277753  0.6561438081471602   T   T   T
  0.5725148090126114  0.5905764655696685  0.5836356297357160   T   T   T
  0.4207649429191508  0.4510278051273566  0.5838040478916769   T   T   T
  0.3955737078331601  0.5110916316688209  0.6589121792033253   T   T   T
  0.5354581962945756  0.6576092186481263  0.6481534539840718   T   T   T
  0.6288338164860439  0.3713076267439471  0.6286962603602124   T   T   T
  0.4448709160563140  0.6995590584960126  0.5913244729267448   T   T   T
  0.2974270338656851  0.5534271254878124  0.6056417203186548   T   T   T
 
  0.00000000E+00  0.00000000E+00  0.00000000E+00
  0.00000000E+00  0.00000000E+00  0.00000000E+00
  0.00000000E+00  0.00000000E+00  0.00000000E+00
  0.00000000E+00  0.00000000E+00  0.00000000E+00
  0.00000000E+00  0.00000000E+00  0.00000000E+00
  0.00000000E+00  0.00000000E+00  0.00000000E+00
  0.00000000E+00  0.00000000E+00  0.00000000E+00
  0.00000000E+00  0.00000000E+00  0.00000000E+00
  0.00000000E+00  0.00000000E+00  0.00000000E+00
  0.00000000E+00  0.00000000E+00  0.00000000E+00
  0.00000000E+00  0.00000000E+00  0.00000000E+00
  0.00000000E+00  0.00000000E+00  0.00000000E+00
  0.00000000E+00  0.00000000E+00  0.00000000E+00
  0.00000000E+00  0.00000000E+00  0.00000000E+00
  0.00000000E+00  0.00000000E+00  0.00000000E+00
  0.00000000E+00  0.00000000E+00  0.00000000E+00
  0.00000000E+00  0.00000000E+00  0.00000000E+00
  0.00000000E+00  0.00000000E+00  0.00000000E+00
  0.00000000E+00  0.00000000E+00  0.00000000E+00
  0.00000000E+00  0.00000000E+00  0.00000000E+00
  0.00000000E+00  0.00000000E+00  0.00000000E+00
  0.00000000E+00  0.00000000E+00  0.00000000E+00
  0.00000000E+00  0.00000000E+00  0.00000000E+00
  0.00000000E+00  0.00000000E+00  0.00000000E+00
  0.00000000E+00  0.00000000E+00  0.00000000E+00
  0.00000000E+00  0.00000000E+00  0.00000000E+00
  0.00000000E+00  0.00000000E+00  0.00000000E+00
  0.00000000E+00  0.00000000E+00  0.00000000E+00
  0.00000000E+00  0.00000000E+00  0.00000000E+00
  0.00000000E+00  0.00000000E+00  0.00000000E+00
  0.00000000E+00  0.00000000E+00  0.00000000E+00
  0.00000000E+00  0.00000000E+00  0.00000000E+00
  0.00000000E+00  0.00000000E+00  0.00000000E+00
  0.00000000E+00  0.00000000E+00  0.00000000E+00
  0.00000000E+00  0.00000000E+00  0.00000000E+00
  0.00000000E+00  0.00000000E+00  0.00000000E+00
  0.00000000E+00  0.00000000E+00  0.00000000E+00
  0.00000000E+00  0.00000000E+00  0.00000000E+00
  0.00000000E+00  0.00000000E+00  0.00000000E+00
  0.00000000E+00  0.00000000E+00  0.00000000E+00
  0.00000000E+00  0.00000000E+00  0.00000000E+00
  0.00000000E+00  0.00000000E+00  0.00000000E+00
  0.00000000E+00  0.00000000E+00  0.00000000E+00
  0.00000000E+00  0.00000000E+00  0.00000000E+00
  0.00000000E+00  0.00000000E+00  0.00000000E+00
  0.00000000E+00  0.00000000E+00  0.00000000E+00
  0.00000000E+00  0.00000000E+00  0.00000000E+00
  0.00000000E+00  0.00000000E+00  0.00000000E+00
  0.00000000E+00  0.00000000E+00  0.00000000E+00
  0.00000000E+00  0.00000000E+00  0.00000000E+00
  0.00000000E+00  0.00000000E+00  0.00000000E+00
  0.00000000E+00  0.00000000E+00  0.00000000E+00
  0.00000000E+00  0.00000000E+00  0.00000000E+00
  0.00000000E+00  0.00000000E+00  0.00000000E+00
  0.00000000E+00  0.00000000E+00  0.00000000E+00
  0.00000000E+00  0.00000000E+00  0.00000000E+00
  0.00000000E+00  0.00000000E+00  0.00000000E+00
  0.00000000E+00  0.00000000E+00  0.00000000E+00
  0.00000000E+00  0.00000000E+00  0.00000000E+00
  0.00000000E+00  0.00000000E+00  0.00000000E+00
  0.00000000E+00  0.00000000E+00  0.00000000E+00
  0.00000000E+00  0.00000000E+00  0.00000000E+00
  0.00000000E+00  0.00000000E+00  0.00000000E+00
  0.00000000E+00  0.00000000E+00  0.00000000E+00
  0.00000000E+00  0.00000000E+00  0.00000000E+00
  0.00000000E+00  0.00000000E+00  0.00000000E+00
  0.00000000E+00  0.00000000E+00  0.00000000E+00
  0.00000000E+00  0.00000000E+00  0.00000000E+00
  0.00000000E+00  0.00000000E+00  0.00000000E+00
  0.00000000E+00  0.00000000E+00  0.00000000E+00
  0.00000000E+00  0.00000000E+00  0.00000000E+00
  0.00000000E+00  0.00000000E+00  0.00000000E+00
  0.00000000E+00  0.00000000E+00  0.00000000E+00
  0.00000000E+00  0.00000000E+00  0.00000000E+00
  0.00000000E+00  0.00000000E+00  0.00000000E+00
  0.00000000E+00  0.00000000E+00  0.00000000E+00
  0.00000000E+00  0.00000000E+00  0.00000000E+00
  0.00000000E+00  0.00000000E+00  0.00000000E+00
  0.00000000E+00  0.00000000E+00  0.00000000E+00
  0.00000000E+00  0.00000000E+00  0.00000000E+00
  0.00000000E+00  0.00000000E+00  0.00000000E+00
  0.00000000E+00  0.00000000E+00  0.00000000E+00
  0.00000000E+00  0.00000000E+00  0.00000000E+00
  0.00000000E+00  0.00000000E+00  0.00000000E+00
  0.00000000E+00  0.00000000E+00  0.00000000E+00
  0.00000000E+00  0.00000000E+00  0.00000000E+00
  0.00000000E+00  0.00000000E+00  0.00000000E+00
  0.00000000E+00  0.00000000E+00  0.00000000E+00
