B N C F O                               
   1.00000000000000     
     7.5365500567000003  -13.0537460594369996    0.0000000000000000
     7.5365500567000003   13.0537460594369996    0.0000000000000000
     0.0000000000000000    0.0000000000000000   35.1146643855649998
   B    N    C    F    O 
    36    36     7    13     2
Selective dynamics
Direct
  0.1096376581669261  0.0526694878772989  0.4963106852361195   T   T   T
  0.1096500377172446  0.2193593954262573  0.4963882753058882   T   T   T
  0.1096663457078420  0.3860401719321798  0.4963139465391724   T   T   T
  0.1096919814741780  0.5526985058651765  0.4961238871895181   T   T   T
  0.1096192747813244  0.7193049005845278  0.4962465560250112   T   T   T
  0.1096140453449188  0.8859759280734222  0.4962565873901919   T   T   T
  0.2762981371554533  0.0526616321684638  0.4960863615455880   T   T   T
  0.2763265192169932  0.2193656633522318  0.4960686837043955   T   T   T
  0.2763425953516701  0.3860802649443275  0.4959877446482033   T   T   T
  0.2763052334728908  0.5527474932251557  0.4959400957465213   T   T   T
  0.2762763786671372  0.7192274314854850  0.4960263888550321   T   T   T
  0.2762818077597247  0.8859487714962134  0.4961827762138151   T   T   T
  0.4429467673142046  0.0526296398202661  0.4958833048760509   T   T   T
  0.4429915023152742  0.2193441064576312  0.4951879208983679   T   T   T
  0.4429503412238178  0.3860481664312726  0.4951442223895339   T   T   T
  0.4429611337873208  0.5527030530923720  0.4950415582614032   T   T   T
  0.4428931062420685  0.7192566328617243  0.4957888434373308   T   T   T
  0.4429265571198800  0.8859113091726158  0.4961040156011413   T   T   T
  0.6096134258599327  0.0526349085829187  0.4961113245278294   T   T   T
  0.6095711504791254  0.2193330127161743  0.4954122178428962   T   T   T
  0.6095604719822212  0.3859816442821559  0.4948575052996906   T   T   T
  0.6095600964430874  0.5526989879147237  0.4949393404557950   T   T   T
  0.6095547352477207  0.7192569981705841  0.4953904070909279   T   T   T
  0.6095935485212913  0.8859396885496720  0.4960864074935646   T   T   T
  0.7762859692956753  0.0526462158228692  0.4962733110022532   T   T   T
  0.7762730395876740  0.2193206008607371  0.4962526570530952   T   T   T
  0.7762493066205570  0.3860049406996838  0.4960143932705539   T   T   T
  0.7762126448029890  0.5526443031747298  0.4959456688817585   T   T   T
  0.7762520727883819  0.7193086212532493  0.4959806575733416   T   T   T
  0.7762647244334759  0.8859717869336531  0.4961945289969469   T   T   T
  0.9429639791390785  0.0526663239339968  0.4963442739708446   T   T   T
  0.9429711519755170  0.2193407095360090  0.4963695279150838   T   T   T
  0.9429634189241860  0.3860122146525083  0.4963888985966421   T   T   T
  0.9429375704893164  0.5526619322006995  0.4963758069218564   T   T   T
  0.9429210435031430  0.7193099756282326  0.4963189225764566   T   T   T
  0.9429481722624861  0.8859822087519557  0.4963077251563026   T   T   T
  0.0540792815884803  0.1082199518135534  0.4963604442118913   T   T   T
  0.0540678682963994  0.2748830630802915  0.4963668204271977   T   T   T
  0.0540446169723755  0.4415424150751679  0.4962926940020864   T   T   T
  0.0540234886495572  0.6081931730521869  0.4962622199763917   T   T   T
  0.0540314035603094  0.7748555802284809  0.4962595955266633   T   T   T
  0.0540646125647099  0.9415396354672830  0.4962766260602011   T   T   T
  0.2207473716012557  0.1082207818462918  0.4962156809031045   T   T   T
  0.2207575892575213  0.2749025210924383  0.4963062026373597   T   T   T
  0.2207318010222225  0.4415645335332644  0.4961502154779035   T   T   T
  0.2206768624023370  0.6081959039512757  0.4957306384954118   T   T   T
  0.2207135029404847  0.7748492101401583  0.4961725861019745   T   T   T
  0.2207267217876566  0.9415340981510635  0.4962029001064552   T   T   T
  0.3874061279077927  0.1082082450692181  0.4957448144726459   T   T   T
  0.3874281142433880  0.2748943788212836  0.4955287017051886   T   T   T
  0.3874064425970207  0.4415703799731966  0.4952683156013638   T   T   T
  0.3873924880841454  0.6081983871599671  0.4954517725875169   T   T   T
  0.3873806913848967  0.7748579087149644  0.4959350772061544   T   T   T
  0.3873958331313379  0.9415272921882131  0.4961062917272430   T   T   T
  0.5540624949117425  0.1082039105532216  0.4958211000470849   T   T   T
  0.5540547885528900  0.2748450392844024  0.4944615815618368   T   T   T
  0.5540481760724818  0.4415655342646477  0.4947251464472179   T   T   T
  0.5540876477026779  0.6082407545499343  0.4944717126630602   T   T   T
  0.5540544441884474  0.7748593262130945  0.4957491126619509   T   T   T
  0.5540669814409335  0.9415333304313352  0.4961419400378539   T   T   T
  0.7207325213597731  0.1082073579772334  0.4962227920345124   T   T   T
  0.7207017150961106  0.2748830184005622  0.4959964990759652   T   T   T
  0.7206569330889169  0.4415189086960467  0.4956224498703113   T   T   T
  0.7206976843555508  0.6082085245758513  0.4956547542688021   T   T   T
  0.7207159521070148  0.7748638765437994  0.4959287851970522   T   T   T
  0.7207329376280245  0.9415430408406865  0.4961925243573383   T   T   T
  0.8874012950514281  0.1082138236879294  0.4963170126256476   T   T   T
  0.8873825179682229  0.2748764020839816  0.4963850346398438   T   T   T
  0.8873526692651545  0.4415374899224358  0.4963672609321467   T   T   T
  0.8873378340443943  0.6081844088348942  0.4963537276186419   T   T   T
  0.8873799058357629  0.7748661542128149  0.4962683094373075   T   T   T
  0.8873987294361197  0.9415399706254912  0.4963212554263702   T   T   T
  0.4755541984199262  0.5546193330337538  0.6128248863453207   T   T   T
  0.4753735075311517  0.4518346676563809  0.6167696728438088   T   T   T
  0.3742754692367922  0.5499488924819291  0.6239232838232360   T   T   T
  0.5840067353033719  0.4637844676517980  0.6160389925703685   T   T   T
  0.5839022462441723  0.3617431080645183  0.6102954125886931   T   T   T
  0.6892579641035422  0.3688118007168526  0.6158161698330981   T   T   T
  0.3629770581530937  0.6418630642490543  0.6094302199403788   T   T   T
  0.4957015242584838  0.5841006404409697  0.5757714254427370   T   T   T
  0.5534322392785151  0.6250929172114065  0.6346056209297410   T   T   T
  0.4302144427884598  0.4072000887013245  0.6502197212918548   T   T   T
  0.4201995058792984  0.3886396641129446  0.5878478041076507   T   T   T
  0.6384433229315332  0.5279925404343504  0.5872437784354640   T   T   T
  0.6317736803976165  0.5052687609706247  0.6494269420317028   T   T   T
  0.5174246384823247  0.2913219017341421  0.6352187016622522   T   T   T
  0.5530849094294885  0.3274763530261751  0.5744460321075548   T   T   T
  0.6799878738454804  0.2785197103813823  0.6061570168056755   T   T   T
  0.7599039492935322  0.4417001772112868  0.5933014818717234   T   T   T
  0.7204387051417349  0.3891975637263801  0.6519967313518009   T   T   T
  0.3680528196058555  0.5472816350759855  0.6630537613168851   T   T   T
  0.2965273748242496  0.4576415589632464  0.6112475063683671   T   T   T
  0.4417504808963311  0.7268059425262948  0.6141528883486598   T   T   T
  0.2770707244606848  0.6185239203222558  0.5968104315132464   T   T   T
 
  0.00000000E+00  0.00000000E+00  0.00000000E+00
  0.00000000E+00  0.00000000E+00  0.00000000E+00
  0.00000000E+00  0.00000000E+00  0.00000000E+00
  0.00000000E+00  0.00000000E+00  0.00000000E+00
  0.00000000E+00  0.00000000E+00  0.00000000E+00
  0.00000000E+00  0.00000000E+00  0.00000000E+00
  0.00000000E+00  0.00000000E+00  0.00000000E+00
  0.00000000E+00  0.00000000E+00  0.00000000E+00
  0.00000000E+00  0.00000000E+00  0.00000000E+00
  0.00000000E+00  0.00000000E+00  0.00000000E+00
  0.00000000E+00  0.00000000E+00  0.00000000E+00
  0.00000000E+00  0.00000000E+00  0.00000000E+00
  0.00000000E+00  0.00000000E+00  0.00000000E+00
  0.00000000E+00  0.00000000E+00  0.00000000E+00
  0.00000000E+00  0.00000000E+00  0.00000000E+00
  0.00000000E+00  0.00000000E+00  0.00000000E+00
  0.00000000E+00  0.00000000E+00  0.00000000E+00
  0.00000000E+00  0.00000000E+00  0.00000000E+00
  0.00000000E+00  0.00000000E+00  0.00000000E+00
  0.00000000E+00  0.00000000E+00  0.00000000E+00
  0.00000000E+00  0.00000000E+00  0.00000000E+00
  0.00000000E+00  0.00000000E+00  0.00000000E+00
  0.00000000E+00  0.00000000E+00  0.00000000E+00
  0.00000000E+00  0.00000000E+00  0.00000000E+00
  0.00000000E+00  0.00000000E+00  0.00000000E+00
  0.00000000E+00  0.00000000E+00  0.00000000E+00
  0.00000000E+00  0.00000000E+00  0.00000000E+00
  0.00000000E+00  0.00000000E+00  0.00000000E+00
  0.00000000E+00  0.00000000E+00  0.00000000E+00
  0.00000000E+00  0.00000000E+00  0.00000000E+00
  0.00000000E+00  0.00000000E+00  0.00000000E+00
  0.00000000E+00  0.00000000E+00  0.00000000E+00
  0.00000000E+00  0.00000000E+00  0.00000000E+00
  0.00000000E+00  0.00000000E+00  0.00000000E+00
  0.00000000E+00  0.00000000E+00  0.00000000E+00
  0.00000000E+00  0.00000000E+00  0.00000000E+00
  0.00000000E+00  0.00000000E+00  0.00000000E+00
  0.00000000E+00  0.00000000E+00  0.00000000E+00
  0.00000000E+00  0.00000000E+00  0.00000000E+00
  0.00000000E+00  0.00000000E+00  0.00000000E+00
  0.00000000E+00  0.00000000E+00  0.00000000E+00
  0.00000000E+00  0.00000000E+00  0.00000000E+00
  0.00000000E+00  0.00000000E+00  0.00000000E+00
  0.00000000E+00  0.00000000E+00  0.00000000E+00
  0.00000000E+00  0.00000000E+00  0.00000000E+00
  0.00000000E+00  0.00000000E+00  0.00000000E+00
  0.00000000E+00  0.00000000E+00  0.00000000E+00
  0.00000000E+00  0.00000000E+00  0.00000000E+00
  0.00000000E+00  0.00000000E+00  0.00000000E+00
  0.00000000E+00  0.00000000E+00  0.00000000E+00
  0.00000000E+00  0.00000000E+00  0.00000000E+00
  0.00000000E+00  0.00000000E+00  0.00000000E+00
  0.00000000E+00  0.00000000E+00  0.00000000E+00
  0.00000000E+00  0.00000000E+00  0.00000000E+00
  0.00000000E+00  0.00000000E+00  0.00000000E+00
  0.00000000E+00  0.00000000E+00  0.00000000E+00
  0.00000000E+00  0.00000000E+00  0.00000000E+00
  0.00000000E+00  0.00000000E+00  0.00000000E+00
  0.00000000E+00  0.00000000E+00  0.00000000E+00
  0.00000000E+00  0.00000000E+00  0.00000000E+00
  0.00000000E+00  0.00000000E+00  0.00000000E+00
  0.00000000E+00  0.00000000E+00  0.00000000E+00
  0.00000000E+00  0.00000000E+00  0.00000000E+00
  0.00000000E+00  0.00000000E+00  0.00000000E+00
  0.00000000E+00  0.00000000E+00  0.00000000E+00
  0.00000000E+00  0.00000000E+00  0.00000000E+00
  0.00000000E+00  0.00000000E+00  0.00000000E+00
  0.00000000E+00  0.00000000E+00  0.00000000E+00
  0.00000000E+00  0.00000000E+00  0.00000000E+00
  0.00000000E+00  0.00000000E+00  0.00000000E+00
  0.00000000E+00  0.00000000E+00  0.00000000E+00
  0.00000000E+00  0.00000000E+00  0.00000000E+00
  0.00000000E+00  0.00000000E+00  0.00000000E+00
  0.00000000E+00  0.00000000E+00  0.00000000E+00
  0.00000000E+00  0.00000000E+00  0.00000000E+00
  0.00000000E+00  0.00000000E+00  0.00000000E+00
  0.00000000E+00  0.00000000E+00  0.00000000E+00
  0.00000000E+00  0.00000000E+00  0.00000000E+00
  0.00000000E+00  0.00000000E+00  0.00000000E+00
  0.00000000E+00  0.00000000E+00  0.00000000E+00
  0.00000000E+00  0.00000000E+00  0.00000000E+00
  0.00000000E+00  0.00000000E+00  0.00000000E+00
  0.00000000E+00  0.00000000E+00  0.00000000E+00
  0.00000000E+00  0.00000000E+00  0.00000000E+00
  0.00000000E+00  0.00000000E+00  0.00000000E+00
  0.00000000E+00  0.00000000E+00  0.00000000E+00
  0.00000000E+00  0.00000000E+00  0.00000000E+00
  0.00000000E+00  0.00000000E+00  0.00000000E+00
  0.00000000E+00  0.00000000E+00  0.00000000E+00
  0.00000000E+00  0.00000000E+00  0.00000000E+00
  0.00000000E+00  0.00000000E+00  0.00000000E+00
  0.00000000E+00  0.00000000E+00  0.00000000E+00
  0.00000000E+00  0.00000000E+00  0.00000000E+00
  0.00000000E+00  0.00000000E+00  0.00000000E+00
