B H N O                                 
   1.00000000000000     
     0.0000000000000000   -8.7025000000000006    0.0000000000000000
    15.0000000000000000    0.0000000000000000    0.0000000000000000
     0.0000000000000000    0.0000000000000000   45.0000000000000000
   B    H    N    O 
    18     5    14     9
Selective dynamics
Direct
  0.3217949488077663  0.5000839194061245  0.4445221756620640   T   T   T
  0.3205900604517687  0.5005930489699344  0.5001415272895123   T   T   T
  0.3192982219715831  0.5025461070932554  0.5557071987327580   T   T   T
  0.3096943358346719  0.5004616454175621  0.6103830045791354   T   T   T
  0.8217528210524538  0.5015350296802900  0.4445450380201377   T   T   T
  0.8205409285361919  0.5006047887631045  0.5002107138150721   T   T   T
  0.8207322783343459  0.5041668010723733  0.5562246197489621   T   T   T
  0.8169824419895090  0.5130081591732474  0.6136128353708985   T   T   T
  0.0717636225844548  0.5012657006897396  0.4170725579195670   T   T   T
  0.0710211629880969  0.5004358859635490  0.4724293083767692   T   T   T
  0.0695675566578918  0.5013704458258332  0.5277316020296404   T   T   T
  0.0666986259902311  0.5044378442551886  0.5829165405559902   T   T   T
  0.5717687721822751  0.5017626087072423  0.4171249184439740   T   T   T
  0.5711054007993712  0.5002671063113056  0.4725386477488082   T   T   T
  0.5704648338109761  0.5016383512299754  0.5280487709415236   T   T   T
  0.5704215027425039  0.5074375266138353  0.5837795076394429   T   T   T
  0.3135056029019190  0.4970334083936996  0.3895728295306996   T   T   T
  0.8134161126444458  0.5077392028925823  0.3896275723278537   T   T   T
  0.2917146650037666  0.4900349006242201  0.6530902178934196   T   T   T
  0.2994464939057651  0.4897315674960935  0.3466335689000907   T   T   T
  0.7992383105417552  0.5173766152022184  0.3467396536948060   T   T   T
  0.7793448529213297  0.4293408366793102  0.6474159402646184   T   T   T
  0.7764723732598338  0.6145558525182229  0.6414295767289061   T   T   T
  0.1548006011920686  0.5003950745778174  0.4447288845164318   T   T   T
  0.1541252242592070  0.5004545003547334  0.5000116981112034   T   T   T
  0.1528719548232993  0.5023147241110740  0.5552518791829710   T   T   T
  0.6547529346033825  0.5009156362667085  0.4447986435490058   T   T   T
  0.6540063022617834  0.5003738948686091  0.5001536237846882   T   T   T
  0.6529175926368821  0.5039028729771244  0.5555584030556381   T   T   T
  0.4051072888480174  0.4998206488577981  0.4164762772523756   T   T   T
  0.4045637779706025  0.5001727662678773  0.4722885200912595   T   T   T
  0.4034944193647372  0.5014272795970662  0.5278735730060978   T   T   T
  0.4016496184125025  0.5038570797968214  0.5836391136832257   T   T   T
  0.9050854051602043  0.5035030616623123  0.4164927790348193   T   T   T
  0.9045145210916247  0.5003931511949892  0.4722924839901347   T   T   T
  0.9034432592661269  0.5014876986337515  0.5278648812146426   T   T   T
  0.9035318657225631  0.5066912791147640  0.5835430262198434   T   T   T
  0.1519528763785789  0.5036638591689669  0.6088543503325957   T   T   T
  0.6479747343561894  0.5148569986825213  0.6092350392074867   T   T   T
  0.3717124315921093  0.4926701639323052  0.6382194923695020   T   T   T
  0.1551383619575190  0.4990804362368619  0.3912112401542916   T   T   T
  0.6551163194237312  0.5053784998606172  0.3912836010880789   T   T   T
  0.3770023383879774  0.4916208738397065  0.3619953236491704   T   T   T
  0.8768008527924226  0.5148214396704700  0.3620837641879123   T   T   T
  0.8526693082709581  0.4331702422166842  0.6314230525181095   T   T   T
  0.8592657837895707  0.5973154171385193  0.6284370946078863   T   T   T
 
  0.00000000E+00  0.00000000E+00  0.00000000E+00
  0.00000000E+00  0.00000000E+00  0.00000000E+00
  0.00000000E+00  0.00000000E+00  0.00000000E+00
  0.00000000E+00  0.00000000E+00  0.00000000E+00
  0.00000000E+00  0.00000000E+00  0.00000000E+00
  0.00000000E+00  0.00000000E+00  0.00000000E+00
  0.00000000E+00  0.00000000E+00  0.00000000E+00
  0.00000000E+00  0.00000000E+00  0.00000000E+00
  0.00000000E+00  0.00000000E+00  0.00000000E+00
  0.00000000E+00  0.00000000E+00  0.00000000E+00
  0.00000000E+00  0.00000000E+00  0.00000000E+00
  0.00000000E+00  0.00000000E+00  0.00000000E+00
  0.00000000E+00  0.00000000E+00  0.00000000E+00
  0.00000000E+00  0.00000000E+00  0.00000000E+00
  0.00000000E+00  0.00000000E+00  0.00000000E+00
  0.00000000E+00  0.00000000E+00  0.00000000E+00
  0.00000000E+00  0.00000000E+00  0.00000000E+00
  0.00000000E+00  0.00000000E+00  0.00000000E+00
  0.00000000E+00  0.00000000E+00  0.00000000E+00
  0.00000000E+00  0.00000000E+00  0.00000000E+00
  0.00000000E+00  0.00000000E+00  0.00000000E+00
  0.00000000E+00  0.00000000E+00  0.00000000E+00
  0.00000000E+00  0.00000000E+00  0.00000000E+00
  0.00000000E+00  0.00000000E+00  0.00000000E+00
  0.00000000E+00  0.00000000E+00  0.00000000E+00
  0.00000000E+00  0.00000000E+00  0.00000000E+00
  0.00000000E+00  0.00000000E+00  0.00000000E+00
  0.00000000E+00  0.00000000E+00  0.00000000E+00
  0.00000000E+00  0.00000000E+00  0.00000000E+00
  0.00000000E+00  0.00000000E+00  0.00000000E+00
  0.00000000E+00  0.00000000E+00  0.00000000E+00
  0.00000000E+00  0.00000000E+00  0.00000000E+00
  0.00000000E+00  0.00000000E+00  0.00000000E+00
  0.00000000E+00  0.00000000E+00  0.00000000E+00
  0.00000000E+00  0.00000000E+00  0.00000000E+00
  0.00000000E+00  0.00000000E+00  0.00000000E+00
  0.00000000E+00  0.00000000E+00  0.00000000E+00
  0.00000000E+00  0.00000000E+00  0.00000000E+00
  0.00000000E+00  0.00000000E+00  0.00000000E+00
  0.00000000E+00  0.00000000E+00  0.00000000E+00
  0.00000000E+00  0.00000000E+00  0.00000000E+00
  0.00000000E+00  0.00000000E+00  0.00000000E+00
  0.00000000E+00  0.00000000E+00  0.00000000E+00
  0.00000000E+00  0.00000000E+00  0.00000000E+00
  0.00000000E+00  0.00000000E+00  0.00000000E+00
  0.00000000E+00  0.00000000E+00  0.00000000E+00
