B N C F O                               
   1.00000000000000     
     7.5365500567000003  -13.0537460594369996    0.0000000000000000
     7.5365500567000003   13.0537460594369996    0.0000000000000000
     0.0000000000000000    0.0000000000000000   35.1146643855649998
   B    N    C    F    O 
    36    36     8    15     2
Selective dynamics
Direct
  0.1096993089993332  0.0570314192532400  0.4913113156069128   T   T   T
  0.1096929421383128  0.2237077006707848  0.4912140037987651   T   T   T
  0.1097046973253968  0.3903666409609552  0.4911413962870869   T   T   T
  0.1098100605446150  0.5570770989264623  0.4910932916093070   T   T   T
  0.1097817608462764  0.7237180685560231  0.4912876431563810   T   T   T
  0.1097019633178974  0.8903650458448502  0.4913569554724728   T   T   T
  0.2763591883799081  0.0570188988926442  0.4917125485722826   T   T   T
  0.2763600334373309  0.2237006473545849  0.4914214441058531   T   T   T
  0.2763928596416413  0.3904057186597280  0.4910130426629479   T   T   T
  0.2763426174685850  0.5571088672236592  0.4908487161443946   T   T   T
  0.2763940185552444  0.7236305550351168  0.4913455090203450   T   T   T
  0.2763349527062999  0.8902567014850905  0.4915737524563695   T   T   T
  0.4430029282078601  0.0569630475970318  0.4920315722910515   T   T   T
  0.4430388832582004  0.2237032645884054  0.4917698598058934   T   T   T
  0.4430265600373659  0.3904082983396356  0.4910306762347718   T   T   T
  0.4429917530594024  0.5570484372549132  0.4906083207380272   T   T   T
  0.4429558668614429  0.7237006889948172  0.4908995962645044   T   T   T
  0.4429567416117805  0.8901943203214109  0.4915196437698881   T   T   T
  0.6096645788321210  0.0569645913609859  0.4917293643237122   T   T   T
  0.6096868279355326  0.2236906169142184  0.4918189482697945   T   T   T
  0.6096586401707895  0.3903577320908844  0.4914563553594967   T   T   T
  0.6096427103509334  0.5570290572603319  0.4909018408571275   T   T   T
  0.6096263236754506  0.7236560738158330  0.4908177248979019   T   T   T
  0.6096388722960946  0.8903003740817423  0.4911983569070647   T   T   T
  0.7763356870004297  0.0570046973608559  0.4913098320725818   T   T   T
  0.7763353865798620  0.2236769784774207  0.4915110689023963   T   T   T
  0.7763563830266866  0.3903300445498176  0.4916356248256074   T   T   T
  0.7763706197160718  0.5570433073162723  0.4915146080492596   T   T   T
  0.7763618567038079  0.7237042660207658  0.4911928397833998   T   T   T
  0.7763342737719926  0.8903529869672930  0.4911186169638677   T   T   T
  0.9430273299713805  0.0570366048330402  0.4911812866222706   T   T   T
  0.9430346075466699  0.2236970667900416  0.4912554938292709   T   T   T
  0.9430439062782258  0.3903540602940745  0.4913789616661348   T   T   T
  0.9430598881499417  0.5570401214592555  0.4914857228244141   T   T   T
  0.9430375875302859  0.7237034711963867  0.4913512507306897   T   T   T
  0.9430345225273603  0.8903668595821493  0.4911965690307964   T   T   T
  0.0541388318444343  0.1125957856989918  0.4911936318548753   T   T   T
  0.0541148403118275  0.2792307155747819  0.4911716552576362   T   T   T
  0.0541053330104497  0.4458811862693187  0.4911698259820307   T   T   T
  0.0541131764467987  0.6125689376844553  0.4912823648793835   T   T   T
  0.0541179651743909  0.7792662165000943  0.4912947763696000   T   T   T
  0.0541323076150720  0.9459382942455179  0.4912416623567421   T   T   T
  0.2207975166649356  0.1125883868216884  0.4914886852350789   T   T   T
  0.2207908292657648  0.2792439360381188  0.4912238586863950   T   T   T
  0.2207733334282677  0.4458809508420611  0.4909915898864917   T   T   T
  0.2207450123985977  0.6125279539816735  0.4907199154171438   T   T   T
  0.2207851825281381  0.7792430378979254  0.4912171213968192   T   T   T
  0.2207958286501762  0.9459344666700448  0.4915424126536179   T   T   T
  0.3874673355931403  0.1125918212537825  0.4920136060741068   T   T   T
  0.3874717671427320  0.2792676344787994  0.4914682200173663   T   T   T
  0.3874754516148670  0.4459128089446594  0.4906868760406187   T   T   T
  0.3874280668333553  0.6125627804283136  0.4905851697249591   T   T   T
  0.3874828346838766  0.7792416689190089  0.4909628399867844   T   T   T
  0.3874678492778085  0.9459060752285234  0.4918206805555611   T   T   T
  0.5541481085981032  0.1125983598686256  0.4920523589289638   T   T   T
  0.5541289360062099  0.2792507800460876  0.4916852290109328   T   T   T
  0.5541351102787059  0.4459300335865311  0.4909406521476675   T   T   T
  0.5541418469651133  0.6125622591585764  0.4905021203600143   T   T   T
  0.5541538376153995  0.7792518132385603  0.4908448646516518   T   T   T
  0.5541450011997008  0.9459172200975022  0.4914784064024805   T   T   T
  0.7207951658179904  0.1125825747529657  0.4915173658226952   T   T   T
  0.7207900502645355  0.2792398323367467  0.4915893326703924   T   T   T
  0.7207941799046377  0.4459103266607627  0.4916753389038956   T   T   T
  0.7208076358554226  0.6125916041916738  0.4912519239830782   T   T   T
  0.7208065407604030  0.7792519539834389  0.4910404390802972   T   T   T
  0.7208018677292203  0.9459231651248243  0.4911652594569488   T   T   T
  0.8874614859595847  0.1125924436829488  0.4912081673868720   T   T   T
  0.8874479532496646  0.2792307395743773  0.4913521872536616   T   T   T
  0.8874494564300336  0.4458980801385244  0.4915465099667002   T   T   T
  0.8874658030515574  0.6125935488244167  0.4915029083885480   T   T   T
  0.8874725330302391  0.7792633163571369  0.4912289935781938   T   T   T
  0.8874679593115389  0.9459261961712889  0.4911245837511035   T   T   T
  0.5267903764592123  0.3922298715289079  0.6117888485183142   T   T   T
  0.5401494634247909  0.5007610495343345  0.6168524099540492   T   T   T
  0.6170522772154315  0.3826110178911076  0.6284846658927010   T   T   T
  0.4389654356619183  0.5034531148398339  0.6120740255948490   T   T   T
  0.4550937559732512  0.6128376478716124  0.6063332377567893   T   T   T
  0.3582610822449573  0.6215886894443712  0.6120683632553857   T   T   T
  0.6235316213290075  0.2895289580598852  0.6132407767701006   T   T   T
  0.3643083943572407  0.7215456336626123  0.5963383875546825   T   T   T
  0.4395224490462343  0.3226877475502661  0.6293806164838672   T   T   T
  0.5186959644452889  0.3695133421005986  0.5742052874294399   T   T   T
  0.5783491945029772  0.5346415052319186  0.6521472081336613   T   T   T
  0.6088127652360453  0.5639529302520941  0.5907284074662389   T   T   T
  0.3885972956079255  0.4445347709167390  0.5815427135534211   T   T   T
  0.3810587322802301  0.4615633669233851  0.6436290377040202   T   T   T
  0.5294656628705442  0.6758534853671545  0.6310301863132034   T   T   T
  0.4895577945807816  0.6423964514594583  0.5702483165110029   T   T   T
  0.7067317729059008  0.4682351921985019  0.6201349761529368   T   T   T
  0.6065845642131507  0.3730769981751194  0.6666959255467281   T   T   T
  0.2783096460413449  0.5350152901465220  0.5965701508799952   T   T   T
  0.3396768591214239  0.6169943056382285  0.6506297806422467   T   T   T
  0.5313618339171663  0.2044157572913230  0.6148404237337242   T   T   T
  0.6570926018196199  0.3050196316264974  0.5772594031748342   T   T   T
  0.6891080579083811  0.2763452069520408  0.6348874211349601   T   T   T
  0.4498078134957180  0.7998640574281266  0.6005834695802746   T   T   T
  0.2822077511192884  0.7098977549688040  0.5836784353993486   T   T   T
 
  0.00000000E+00  0.00000000E+00  0.00000000E+00
  0.00000000E+00  0.00000000E+00  0.00000000E+00
  0.00000000E+00  0.00000000E+00  0.00000000E+00
  0.00000000E+00  0.00000000E+00  0.00000000E+00
  0.00000000E+00  0.00000000E+00  0.00000000E+00
  0.00000000E+00  0.00000000E+00  0.00000000E+00
  0.00000000E+00  0.00000000E+00  0.00000000E+00
  0.00000000E+00  0.00000000E+00  0.00000000E+00
  0.00000000E+00  0.00000000E+00  0.00000000E+00
  0.00000000E+00  0.00000000E+00  0.00000000E+00
  0.00000000E+00  0.00000000E+00  0.00000000E+00
  0.00000000E+00  0.00000000E+00  0.00000000E+00
  0.00000000E+00  0.00000000E+00  0.00000000E+00
  0.00000000E+00  0.00000000E+00  0.00000000E+00
  0.00000000E+00  0.00000000E+00  0.00000000E+00
  0.00000000E+00  0.00000000E+00  0.00000000E+00
  0.00000000E+00  0.00000000E+00  0.00000000E+00
  0.00000000E+00  0.00000000E+00  0.00000000E+00
  0.00000000E+00  0.00000000E+00  0.00000000E+00
  0.00000000E+00  0.00000000E+00  0.00000000E+00
  0.00000000E+00  0.00000000E+00  0.00000000E+00
  0.00000000E+00  0.00000000E+00  0.00000000E+00
  0.00000000E+00  0.00000000E+00  0.00000000E+00
  0.00000000E+00  0.00000000E+00  0.00000000E+00
  0.00000000E+00  0.00000000E+00  0.00000000E+00
  0.00000000E+00  0.00000000E+00  0.00000000E+00
  0.00000000E+00  0.00000000E+00  0.00000000E+00
  0.00000000E+00  0.00000000E+00  0.00000000E+00
  0.00000000E+00  0.00000000E+00  0.00000000E+00
  0.00000000E+00  0.00000000E+00  0.00000000E+00
  0.00000000E+00  0.00000000E+00  0.00000000E+00
  0.00000000E+00  0.00000000E+00  0.00000000E+00
  0.00000000E+00  0.00000000E+00  0.00000000E+00
  0.00000000E+00  0.00000000E+00  0.00000000E+00
  0.00000000E+00  0.00000000E+00  0.00000000E+00
  0.00000000E+00  0.00000000E+00  0.00000000E+00
  0.00000000E+00  0.00000000E+00  0.00000000E+00
  0.00000000E+00  0.00000000E+00  0.00000000E+00
  0.00000000E+00  0.00000000E+00  0.00000000E+00
  0.00000000E+00  0.00000000E+00  0.00000000E+00
  0.00000000E+00  0.00000000E+00  0.00000000E+00
  0.00000000E+00  0.00000000E+00  0.00000000E+00
  0.00000000E+00  0.00000000E+00  0.00000000E+00
  0.00000000E+00  0.00000000E+00  0.00000000E+00
  0.00000000E+00  0.00000000E+00  0.00000000E+00
  0.00000000E+00  0.00000000E+00  0.00000000E+00
  0.00000000E+00  0.00000000E+00  0.00000000E+00
  0.00000000E+00  0.00000000E+00  0.00000000E+00
  0.00000000E+00  0.00000000E+00  0.00000000E+00
  0.00000000E+00  0.00000000E+00  0.00000000E+00
  0.00000000E+00  0.00000000E+00  0.00000000E+00
  0.00000000E+00  0.00000000E+00  0.00000000E+00
  0.00000000E+00  0.00000000E+00  0.00000000E+00
  0.00000000E+00  0.00000000E+00  0.00000000E+00
  0.00000000E+00  0.00000000E+00  0.00000000E+00
  0.00000000E+00  0.00000000E+00  0.00000000E+00
  0.00000000E+00  0.00000000E+00  0.00000000E+00
  0.00000000E+00  0.00000000E+00  0.00000000E+00
  0.00000000E+00  0.00000000E+00  0.00000000E+00
  0.00000000E+00  0.00000000E+00  0.00000000E+00
  0.00000000E+00  0.00000000E+00  0.00000000E+00
  0.00000000E+00  0.00000000E+00  0.00000000E+00
  0.00000000E+00  0.00000000E+00  0.00000000E+00
  0.00000000E+00  0.00000000E+00  0.00000000E+00
  0.00000000E+00  0.00000000E+00  0.00000000E+00
  0.00000000E+00  0.00000000E+00  0.00000000E+00
  0.00000000E+00  0.00000000E+00  0.00000000E+00
  0.00000000E+00  0.00000000E+00  0.00000000E+00
  0.00000000E+00  0.00000000E+00  0.00000000E+00
  0.00000000E+00  0.00000000E+00  0.00000000E+00
  0.00000000E+00  0.00000000E+00  0.00000000E+00
  0.00000000E+00  0.00000000E+00  0.00000000E+00
  0.00000000E+00  0.00000000E+00  0.00000000E+00
  0.00000000E+00  0.00000000E+00  0.00000000E+00
  0.00000000E+00  0.00000000E+00  0.00000000E+00
  0.00000000E+00  0.00000000E+00  0.00000000E+00
  0.00000000E+00  0.00000000E+00  0.00000000E+00
  0.00000000E+00  0.00000000E+00  0.00000000E+00
  0.00000000E+00  0.00000000E+00  0.00000000E+00
  0.00000000E+00  0.00000000E+00  0.00000000E+00
  0.00000000E+00  0.00000000E+00  0.00000000E+00
  0.00000000E+00  0.00000000E+00  0.00000000E+00
  0.00000000E+00  0.00000000E+00  0.00000000E+00
  0.00000000E+00  0.00000000E+00  0.00000000E+00
  0.00000000E+00  0.00000000E+00  0.00000000E+00
  0.00000000E+00  0.00000000E+00  0.00000000E+00
  0.00000000E+00  0.00000000E+00  0.00000000E+00
  0.00000000E+00  0.00000000E+00  0.00000000E+00
  0.00000000E+00  0.00000000E+00  0.00000000E+00
  0.00000000E+00  0.00000000E+00  0.00000000E+00
  0.00000000E+00  0.00000000E+00  0.00000000E+00
  0.00000000E+00  0.00000000E+00  0.00000000E+00
  0.00000000E+00  0.00000000E+00  0.00000000E+00
  0.00000000E+00  0.00000000E+00  0.00000000E+00
  0.00000000E+00  0.00000000E+00  0.00000000E+00
  0.00000000E+00  0.00000000E+00  0.00000000E+00
  0.00000000E+00  0.00000000E+00  0.00000000E+00
