B N                                     
   1.00000000000000     
     1.2560916761166687   -2.1756243432395777    0.0000000000000000
     1.2560916761166687    2.1756243432395777    0.0000000000000000
     0.0000000000000000    0.0000000000000000   35.1146643855649074
   B    N 
     1     1
Selective dynamics
Direct
  0.6666685828510026  0.3333354107910012  0.5000000000000000   T   T   T
  0.3333354107910012  0.6666685828510026  0.5000000000000000   T   T   T
 
  0.00000000E+00  0.00000000E+00  0.00000000E+00
  0.00000000E+00  0.00000000E+00  0.00000000E+00
