B C F N O                               
   1.00000000000000     
     7.5365500567000003  -13.0537460594369996    0.0000000000000000
     7.5365500567000003   13.0537460594369996    0.0000000000000000
     0.0000000000000000    0.0000000000000000   35.1146643855649998
   B    C    F    N    O 
    35     8    15    37     2
Selective dynamics
Direct
  0.1099789527447552  0.0570876065202960  0.4928566391748057   T   T   T
  0.1100672569797412  0.2242770265660230  0.4927921665361684   T   T   T
  0.1102736997425666  0.3914340615182609  0.4925645788328053   T   T   T
  0.1082341662940045  0.5584223159302307  0.4922364901752313   T   T   T
  0.1081531915362096  0.7211777337583041  0.4924703019329759   T   T   T
  0.1101268752562725  0.8901107719876019  0.4927477113081843   T   T   T
  0.2768054349499406  0.0569365585991268  0.4927345951122603   T   T   T
  0.2766019420131259  0.2239520845966324  0.4924908896643267   T   T   T
  0.2768933835287971  0.3912200882751029  0.4919232209484615   T   T   T
  0.2791558328886456  0.5584761652513244  0.4916417394283542   T   T   T
  0.2791253167891141  0.8921015461240109  0.4924453516391569   T   T   T
  0.4440363058839806  0.0589414455019218  0.4926679012010907   T   T   T
  0.4433342366185599  0.2242015363860432  0.4922823029652467   T   T   T
  0.4433288212008089  0.3903008341944793  0.4912852024446411   T   T   T
  0.4440185955351701  0.5562777130487060  0.4907876267042730   T   T   T
  0.4419083999978791  0.7211805822961599  0.4911590144934570   T   T   T
  0.4419417066308343  0.8920452332494648  0.4919944674479005   T   T   T
  0.6092208147356436  0.0568609027805022  0.4925861606544785   T   T   T
  0.6100692052420483  0.2241722080321022  0.4923841088763587   T   T   T
  0.6098245379974268  0.3904474448427170  0.4917920625800464   T   T   T
  0.6100000092895317  0.5569590743285300  0.4912224664272060   T   T   T
  0.6091464285194639  0.7233897684887253  0.4914797786582193   T   T   T
  0.6089636761424738  0.8900574939046118  0.4921313850749366   T   T   T
  0.7761848580507412  0.0570077806096153  0.4927280781624349   T   T   T
  0.7764810243505090  0.2238647436356952  0.4926958599522934   T   T   T
  0.7761468056417855  0.3902342705004652  0.4925207106807603   T   T   T
  0.7760752427649531  0.5569554561501489  0.4924371406215525   T   T   T
  0.7763428198937258  0.7236935956754810  0.4923793090426239   T   T   T
  0.7760837409004129  0.8902657163951170  0.4925414700357816   T   T   T
  0.9431528817514171  0.0571975633607616  0.4928726190794943   T   T   T
  0.9433473159274457  0.2242139006910508  0.4928645800321773   T   T   T
  0.9434613356253736  0.3911548773803584  0.4927225712852292   T   T   T
  0.9413393857336564  0.5562694178014935  0.4927111333563731   T   T   T
  0.9432847149511898  0.7234495525803717  0.4927390197516711   T   T   T
  0.9431953893945985  0.8903082394595613  0.4928079611161911   T   T   T
  0.5266288986744567  0.3930219597525440  0.6101308597824489   T   T   T
  0.5400288002533287  0.5015136036112826  0.6155336828022069   T   T   T
  0.6156723071224642  0.3821480686056252  0.6272278111127658   T   T   T
  0.4390359785168654  0.5040416209583558  0.6099267830968907   T   T   T
  0.4545731176096015  0.6130330804103953  0.6042195778725344   T   T   T
  0.3562855302723298  0.6203018585307759  0.6079452338639033   T   T   T
  0.6224301912141577  0.2897316613040042  0.6113017438087262   T   T   T
  0.3651133284788161  0.7182638417291484  0.5891304428382210   T   T   T
  0.4381623177949155  0.3229333177076448  0.6268013543005563   T   T   T
  0.5208744297723411  0.3722326851592113  0.5723753989960286   T   T   T
  0.5761988917216913  0.5344045829831271  0.6510667579870808   T   T   T
  0.6099573657195058  0.5655271681350905  0.5898808289950603   T   T   T
  0.3909685056424360  0.4459447561926655  0.5789127405526345   T   T   T
  0.3791101692405964  0.4615317190478655  0.6409120273151037   T   T   T
  0.5257437677400755  0.6759725962636404  0.6297155984812477   T   T   T
  0.4927102989247061  0.6446600066372296  0.5684878071949152   T   T   T
  0.7057616979925142  0.4681334642581927  0.6197085880571185   T   T   T
  0.6031397495643506  0.3706296517289361  0.6652990055872141   T   T   T
  0.2779701863539821  0.5324106839441631  0.5925381288315832   T   T   T
  0.3347639159543754  0.6190577958965040  0.6459312703088309   T   T   T
  0.5295678149586857  0.2053692664708296  0.6110414468914258   T   T   T
  0.6598762836362060  0.3087019634814132  0.5758138045880136   T   T   T
  0.6849028767245909  0.2730664966720189  0.6333768453494806   T   T   T
  0.2764495954700392  0.7238325207428690  0.4915651018252203   T   T   T
  0.0544982650526207  0.1129356521826556  0.4928896076507492   T   T   T
  0.0549438034643019  0.2807268473677024  0.4928143468416169   T   T   T
  0.0563650912988673  0.4488290938643351  0.4925259738102525   T   T   T
  0.0539459627911866  0.6126413974914241  0.4925277652947692   T   T   T
  0.0561884551186157  0.7787934171738318  0.4926900369812985   T   T   T
  0.0547809693766437  0.9454943577736800  0.4928391237728405   T   T   T
  0.2211489201774777  0.1123054435785610  0.4927770283013656   T   T   T
  0.2212384764142230  0.2802623179483130  0.4925197532151220   T   T   T
  0.2216251187542540  0.4488898204415906  0.4922077138984641   T   T   T
  0.2247556173045656  0.6205586085847843  0.4915428896446327   T   T   T
  0.2247020962868576  0.7755918760014853  0.4921432693648159   T   T   T
  0.2214655604358040  0.9440345257834880  0.4926834373318780   T   T   T
  0.3876242103463927  0.1126450734140926  0.4926656143716950   T   T   T
  0.3876192711579492  0.2794435114475126  0.4920902561083270   T   T   T
  0.3876549287158281  0.4462396576429284  0.4910691228705241   T   T   T
  0.3876822588264665  0.6126078284187123  0.4910990563707484   T   T   T
  0.3799408706104820  0.7756153136097783  0.4912074249544925   T   T   T
  0.3876861996065181  0.9463241191449377  0.4924948514665345   T   T   T
  0.5541573799814073  0.1126087802538799  0.4926418006177293   T   T   T
  0.5542706645915192  0.2793474634934336  0.4921075905376930   T   T   T
  0.5542567960846849  0.4460512512214780  0.4910886374664140   T   T   T
  0.5540983649990755  0.6126207418326342  0.4907749184685680   T   T   T
  0.5514855086753772  0.7786918213752069  0.4915874353173700   T   T   T
  0.5515504713457932  0.9439550020371045  0.4922355672739087   T   T   T
  0.7202328851728486  0.1122043061755012  0.4927150461332341   T   T   T
  0.7209690448027154  0.2793469500669294  0.4924399434863171   T   T   T
  0.7209163068878529  0.4459920828793452  0.4923683773812890   T   T   T
  0.7208622741775440  0.6126827445521398  0.4921116235757309   T   T   T
  0.7200837992945088  0.7790885118666646  0.4922118150490730   T   T   T
  0.7196639438575014  0.9454042660148043  0.4925117265076042   T   T   T
  0.8875176661399043  0.1128742360221281  0.4928559123437716   T   T   T
  0.8881413718997135  0.2801501154852260  0.4928156968246426   T   T   T
  0.8877037384235993  0.4461730013242223  0.4927147755559310   T   T   T
  0.8876144685017391  0.6126533457082841  0.4927231419608064   T   T   T
  0.8879665883276603  0.7791419795252404  0.4927328047753625   T   T   T
  0.8874105872127833  0.9458414735658338  0.4927908503335773   T   T   T
  0.4414038697650504  0.7992414393972712  0.5997568063462467   T   T   T
  0.2947727229178848  0.7025674263353198  0.5666735187351614   T   T   T
 
  0.00000000E+00  0.00000000E+00  0.00000000E+00
  0.00000000E+00  0.00000000E+00  0.00000000E+00
  0.00000000E+00  0.00000000E+00  0.00000000E+00
  0.00000000E+00  0.00000000E+00  0.00000000E+00
  0.00000000E+00  0.00000000E+00  0.00000000E+00
  0.00000000E+00  0.00000000E+00  0.00000000E+00
  0.00000000E+00  0.00000000E+00  0.00000000E+00
  0.00000000E+00  0.00000000E+00  0.00000000E+00
  0.00000000E+00  0.00000000E+00  0.00000000E+00
  0.00000000E+00  0.00000000E+00  0.00000000E+00
  0.00000000E+00  0.00000000E+00  0.00000000E+00
  0.00000000E+00  0.00000000E+00  0.00000000E+00
  0.00000000E+00  0.00000000E+00  0.00000000E+00
  0.00000000E+00  0.00000000E+00  0.00000000E+00
  0.00000000E+00  0.00000000E+00  0.00000000E+00
  0.00000000E+00  0.00000000E+00  0.00000000E+00
  0.00000000E+00  0.00000000E+00  0.00000000E+00
  0.00000000E+00  0.00000000E+00  0.00000000E+00
  0.00000000E+00  0.00000000E+00  0.00000000E+00
  0.00000000E+00  0.00000000E+00  0.00000000E+00
  0.00000000E+00  0.00000000E+00  0.00000000E+00
  0.00000000E+00  0.00000000E+00  0.00000000E+00
  0.00000000E+00  0.00000000E+00  0.00000000E+00
  0.00000000E+00  0.00000000E+00  0.00000000E+00
  0.00000000E+00  0.00000000E+00  0.00000000E+00
  0.00000000E+00  0.00000000E+00  0.00000000E+00
  0.00000000E+00  0.00000000E+00  0.00000000E+00
  0.00000000E+00  0.00000000E+00  0.00000000E+00
  0.00000000E+00  0.00000000E+00  0.00000000E+00
  0.00000000E+00  0.00000000E+00  0.00000000E+00
  0.00000000E+00  0.00000000E+00  0.00000000E+00
  0.00000000E+00  0.00000000E+00  0.00000000E+00
  0.00000000E+00  0.00000000E+00  0.00000000E+00
  0.00000000E+00  0.00000000E+00  0.00000000E+00
  0.00000000E+00  0.00000000E+00  0.00000000E+00
  0.00000000E+00  0.00000000E+00  0.00000000E+00
  0.00000000E+00  0.00000000E+00  0.00000000E+00
  0.00000000E+00  0.00000000E+00  0.00000000E+00
  0.00000000E+00  0.00000000E+00  0.00000000E+00
  0.00000000E+00  0.00000000E+00  0.00000000E+00
  0.00000000E+00  0.00000000E+00  0.00000000E+00
  0.00000000E+00  0.00000000E+00  0.00000000E+00
  0.00000000E+00  0.00000000E+00  0.00000000E+00
  0.00000000E+00  0.00000000E+00  0.00000000E+00
  0.00000000E+00  0.00000000E+00  0.00000000E+00
  0.00000000E+00  0.00000000E+00  0.00000000E+00
  0.00000000E+00  0.00000000E+00  0.00000000E+00
  0.00000000E+00  0.00000000E+00  0.00000000E+00
  0.00000000E+00  0.00000000E+00  0.00000000E+00
  0.00000000E+00  0.00000000E+00  0.00000000E+00
  0.00000000E+00  0.00000000E+00  0.00000000E+00
  0.00000000E+00  0.00000000E+00  0.00000000E+00
  0.00000000E+00  0.00000000E+00  0.00000000E+00
  0.00000000E+00  0.00000000E+00  0.00000000E+00
  0.00000000E+00  0.00000000E+00  0.00000000E+00
  0.00000000E+00  0.00000000E+00  0.00000000E+00
  0.00000000E+00  0.00000000E+00  0.00000000E+00
  0.00000000E+00  0.00000000E+00  0.00000000E+00
  0.00000000E+00  0.00000000E+00  0.00000000E+00
  0.00000000E+00  0.00000000E+00  0.00000000E+00
  0.00000000E+00  0.00000000E+00  0.00000000E+00
  0.00000000E+00  0.00000000E+00  0.00000000E+00
  0.00000000E+00  0.00000000E+00  0.00000000E+00
  0.00000000E+00  0.00000000E+00  0.00000000E+00
  0.00000000E+00  0.00000000E+00  0.00000000E+00
  0.00000000E+00  0.00000000E+00  0.00000000E+00
  0.00000000E+00  0.00000000E+00  0.00000000E+00
  0.00000000E+00  0.00000000E+00  0.00000000E+00
  0.00000000E+00  0.00000000E+00  0.00000000E+00
  0.00000000E+00  0.00000000E+00  0.00000000E+00
  0.00000000E+00  0.00000000E+00  0.00000000E+00
  0.00000000E+00  0.00000000E+00  0.00000000E+00
  0.00000000E+00  0.00000000E+00  0.00000000E+00
  0.00000000E+00  0.00000000E+00  0.00000000E+00
  0.00000000E+00  0.00000000E+00  0.00000000E+00
  0.00000000E+00  0.00000000E+00  0.00000000E+00
  0.00000000E+00  0.00000000E+00  0.00000000E+00
  0.00000000E+00  0.00000000E+00  0.00000000E+00
  0.00000000E+00  0.00000000E+00  0.00000000E+00
  0.00000000E+00  0.00000000E+00  0.00000000E+00
  0.00000000E+00  0.00000000E+00  0.00000000E+00
  0.00000000E+00  0.00000000E+00  0.00000000E+00
  0.00000000E+00  0.00000000E+00  0.00000000E+00
  0.00000000E+00  0.00000000E+00  0.00000000E+00
  0.00000000E+00  0.00000000E+00  0.00000000E+00
  0.00000000E+00  0.00000000E+00  0.00000000E+00
  0.00000000E+00  0.00000000E+00  0.00000000E+00
  0.00000000E+00  0.00000000E+00  0.00000000E+00
  0.00000000E+00  0.00000000E+00  0.00000000E+00
  0.00000000E+00  0.00000000E+00  0.00000000E+00
  0.00000000E+00  0.00000000E+00  0.00000000E+00
  0.00000000E+00  0.00000000E+00  0.00000000E+00
  0.00000000E+00  0.00000000E+00  0.00000000E+00
  0.00000000E+00  0.00000000E+00  0.00000000E+00
  0.00000000E+00  0.00000000E+00  0.00000000E+00
  0.00000000E+00  0.00000000E+00  0.00000000E+00
  0.00000000E+00  0.00000000E+00  0.00000000E+00
