B N C F O                               
   1.00000000000000     
    10.0487000000000002  -17.4050000000000011    0.0000000000000000
    10.0487000000000002   17.4050000000000011    0.0000000000000000
     0.0000000000000000    0.0000000000000000   35.0000000000000000
   B    N    C    F    O 
    64    64     3     5     2
Selective dynamics
Direct
  0.0832892991292056  0.0416808968276499  0.5016956247583622   T   T   T
  0.0832809788320930  0.1666769139047517  0.5017072191053060   T   T   T
  0.0832801248418420  0.2916781765341767  0.5016847999324341   T   T   T
  0.0832975473098401  0.4166845777084092  0.5016473799184737   T   T   T
  0.0833079322084842  0.5416850531287878  0.5016389513853809   T   T   T
  0.0833082078382574  0.6666851128967082  0.5016390064117857   T   T   T
  0.0833068097904928  0.7916860713424683  0.5016404686007832   T   T   T
  0.0833024838331369  0.9166858258529089  0.5016603214063409   T   T   T
  0.2082969568429576  0.0416790122405430  0.5017132296261266   T   T   T
  0.2082820118931110  0.1666722758838191  0.5017213207947009   T   T   T
  0.2082877623586228  0.2916700617722157  0.5016773582007659   T   T   T
  0.2082941438931201  0.4167004838797297  0.5015783810803640   T   T   T
  0.2083084680378775  0.5416943120224644  0.5016342448535340   T   T   T
  0.2083081935170839  0.6666877356986447  0.5016424400915938   T   T   T
  0.2083083946896096  0.7916875496726519  0.5016417720815411   T   T   T
  0.2083041089582167  0.9166871805416221  0.5016624018106057   T   T   T
  0.3333056912662613  0.0416842827053188  0.5016987277964091   T   T   T
  0.3333066034718968  0.1666779492812935  0.5017413320026520   T   T   T
  0.3333148866981475  0.2916948874283420  0.5017530984411351   T   T   T
  0.3333276736408877  0.4167042562854277  0.5016695348058064   T   T   T
  0.3333150758548058  0.5417087958078355  0.5016616203920137   T   T   T
  0.3333092205498787  0.6666928655880184  0.5016531935816744   T   T   T
  0.3333088427606725  0.7916887737695504  0.5016422937900984   T   T   T
  0.3333059794814019  0.9166877883161249  0.5016473366173528   T   T   T
  0.4583046052901665  0.0416857807383693  0.5016519328882723   T   T   T
  0.4583021348244429  0.1666817638433216  0.5016986123973410   T   T   T
  0.4583038104766928  0.2916863764773012  0.5017232602398636   T   T   T
  0.4583065299277180  0.4166901640680720  0.5017036828868839   T   T   T
  0.4583070484211333  0.5416953962354256  0.5016760875174597   T   T   T
  0.4583055927492268  0.6666908541634271  0.5016615562543194   T   T   T
  0.4583070237791986  0.7916877029259410  0.5016446019254488   T   T   T
  0.4583083603017428  0.9166865818624643  0.5016373510895349   T   T   T
  0.5833067957373217  0.0416834346807633  0.5016353569870446   T   T   T
  0.5833023671000959  0.1666839055048044  0.5016450899135378   T   T   T
  0.5832996169669968  0.2916838593249338  0.5016629404236852   T   T   T
  0.5832993564138746  0.4166836211184730  0.5016637116840954   T   T   T
  0.5833007507172354  0.5416845154124417  0.5016531680317229   T   T   T
  0.5833038489807691  0.6666845746723595  0.5016484557944452   T   T   T
  0.5833065448768195  0.7916847191245111  0.5016424609017776   T   T   T
  0.5833078612924822  0.9166847914755394  0.5016366358593132   T   T   T
  0.7083069417961312  0.0416838537147228  0.5016372604156700   T   T   T
  0.7083044957401867  0.1666837424182432  0.5016380854924734   T   T   T
  0.7083031909795920  0.2916832864569656  0.5016387958630446   T   T   T
  0.7083028442156376  0.4166820215498532  0.5016391485052338   T   T   T
  0.7083033686300766  0.5416814288491381  0.5016370710994309   T   T   T
  0.7083050708519139  0.6666811428903827  0.5016371006622578   T   T   T
  0.7083060283627773  0.7916818598228375  0.5016379415953054   T   T   T
  0.7083077670684474  0.9166826501331897  0.5016366965281946   T   T   T
  0.8333035230810140  0.0416833726896897  0.5016452376971898   T   T   T
  0.8333018408708952  0.1666839086711889  0.5016507347557706   T   T   T
  0.8333024834461540  0.2916840488895645  0.5016471591147038   T   T   T
  0.8333057691802850  0.4166838372932204  0.5016393113164597   T   T   T
  0.8333067869907538  0.5416827404767517  0.5016363029447959   T   T   T
  0.8333069448686388  0.6666819826977459  0.5016359161568857   T   T   T
  0.8333072247512661  0.7916817376535334  0.5016362087200577   T   T   T
  0.8333057468843279  0.9166824940939193  0.5016389835895652   T   T   T
  0.9582968179398179  0.0416829171730555  0.5016638699114111   T   T   T
  0.9582946478854311  0.1666845583670096  0.5016775245676683   T   T   T
  0.9582969732130664  0.2916827643062092  0.5016710137754856   T   T   T
  0.9583044327653880  0.4166847840573098  0.5016487943507570   T   T   T
  0.9583082691958680  0.5416845216995867  0.5016389400513717   T   T   T
  0.9583088132582205  0.6666838745247929  0.5016374043405420   T   T   T
  0.9583078492947905  0.7916841435484372  0.5016379810116049   T   T   T
  0.9583032627163064  0.9166837458240309  0.5016475123332285   T   T   T
  0.0416300081520191  0.0833500991043223  0.5016827387865064   T   T   T
  0.0416321347708362  0.2083547991984389  0.5016920813953689   T   T   T
  0.0416346956166080  0.3333530024506715  0.5016691114332659   T   T   T
  0.0416370436759408  0.4583529162398747  0.5016356216360904   T   T   T
  0.0416402796187967  0.5833527692149687  0.5016283092590470   T   T   T
  0.0416405767305079  0.7083509160570287  0.5016280140195093   T   T   T
  0.0416388154440739  0.8333500346518221  0.5016319310900599   T   T   T
  0.0416342429796757  0.9583495812006859  0.5016550439216871   T   T   T
  0.1666320568198003  0.0833518839357836  0.5017174392273986   T   T   T
  0.1666301169448587  0.2083498425648145  0.5017280496717476   T   T   T
  0.1666434087324618  0.3333617959635191  0.5016591603537393   T   T   T
  0.1666370233733687  0.4583551942711637  0.5016105783756331   T   T   T
  0.1666409428210258  0.5833546433622416  0.5016296323546925   T   T   T
  0.1666413679416934  0.7083542350644194  0.5016311630726875   T   T   T
  0.1666400056328143  0.8333524895128548  0.5016339891767814   T   T   T
  0.1666356635563631  0.9583513326582320  0.5016686932123449   T   T   T
  0.2916335910399894  0.0833547411808198  0.5017296002965281   T   T   T
  0.2916273081422318  0.2083509784479318  0.5017755431597308   T   T   T
  0.2916291484088518  0.3333577850718825  0.5017534689808656   T   T   T
  0.2916312731676243  0.4583466556252773  0.5016484641114971   T   T   T
  0.2916403853630385  0.5833557309037047  0.5016450250675604   T   T   T
  0.2916417653997314  0.7083564076833611  0.5016363195346614   T   T   T
  0.2916413583274036  0.8333543250623876  0.5016308755514345   T   T   T
  0.2916382421293591  0.9583539028358743  0.5016566742214081   T   T   T
  0.4166361896827979  0.0833512039129403  0.5016740086098821   T   T   T
  0.4166288909144811  0.2083500262572429  0.5017307558784907   T   T   T
  0.4166303138129805  0.3333508720509144  0.5017394571024312   T   T   T
  0.4166363572282847  0.4583560920748937  0.5016820482631630   T   T   T
  0.4166366582457002  0.5833554726869394  0.5016645924293641   T   T   T
  0.4166409873196812  0.7083568113777332  0.5016446578812790   T   T   T
  0.4166421959542106  0.8333551104338284  0.5016300406325485   T   T   T
  0.4166408416732565  0.9583525299643227  0.5016311260940967   T   T   T
  0.5416389734195661  0.0833501907181926  0.5016296129086228   T   T   T
  0.5416342024341105  0.2083496677073882  0.5016562084371188   T   T   T
  0.5416337934749791  0.3333498663536503  0.5016725015773247   T   T   T
  0.5416351334935996  0.4583516777027441  0.5016613042085538   T   T   T
  0.5416379573770485  0.5833538142801800  0.5016475737229271   T   T   T
  0.5416397462150684  0.7083534436811902  0.5016400563904639   T   T   T
  0.5416418108738412  0.8333533138205027  0.5016306505298047   T   T   T
  0.5416422342360647  0.9583516176356710  0.5016242942104157   T   T   T
  0.6666390892071021  0.0833496600085795  0.5016250366755628   T   T   T
  0.6666367454942517  0.2083491701216929  0.5016258515623306   T   T   T
  0.6666362433768853  0.3333489019698348  0.5016325898037977   T   T   T
  0.6666372030071059  0.4583487593629201  0.5016309776214456   T   T   T
  0.6666388913200265  0.5833496149775357  0.5016278498013733   T   T   T
  0.6666400619226209  0.7083499886737101  0.5016291305778466   T   T   T
  0.6666406579457060  0.8333498964407156  0.5016277530050814   T   T   T
  0.6666409614144797  0.9583499958477830  0.5016254282995973   T   T   T
  0.7916364543151388  0.0833491623651810  0.5016325326729287   T   T   T
  0.7916351307281388  0.2083497215467105  0.5016350246487420   T   T   T
  0.7916365167359487  0.3333499365956456  0.5016296301946142   T   T   T
  0.7916383656397201  0.4583494143357214  0.5016255089297630   T   T   T
  0.7916396624067659  0.5833488672664728  0.5016251163169088   T   T   T
  0.7916399711086868  0.7083481958176208  0.5016252375654275   T   T   T
  0.7916394080509050  0.8333481282606385  0.5016264514004689   T   T   T
  0.7916380189166219  0.9583484380714467  0.5016276940577953   T   T   T
  0.9166334784380439  0.0833506137049369  0.5016487424237610   T   T   T
  0.9166315768609152  0.2083510883889517  0.5016556532106762   T   T   T
  0.9166342751908871  0.3333512213110197  0.5016462596560345   T   T   T
  0.9166377842190698  0.4583513736993794  0.5016314094723953   T   T   T
  0.9166403491571131  0.5833502044787267  0.5016271905887280   T   T   T
  0.9166402414269257  0.7083491291436346  0.5016264260396213   T   T   T
  0.9166384874327704  0.8333479545479676  0.5016272447330863   T   T   T
  0.9166351166631870  0.9583481078148566  0.5016353334857655   T   T   T
  0.2828951000997435  0.2254322047373591  0.6643616867631223   T   T   T
  0.2702008746009881  0.2036013737345996  0.6227046574308233   T   T   T
  0.2370787556800096  0.3876810427253474  0.6114419067786869   T   T   T
  0.3505005263424223  0.2902345145202432  0.6689961071920933   T   T   T
  0.2838785435365168  0.1703529927122673  0.6862195602639432   T   T   T
  0.2264201402313617  0.2365440627352839  0.6773810310926791   T   T   T
  0.3266800435018595  0.1974599161281816  0.6066529139155534   T   T   T
  0.2018469773258076  0.1436157371453035  0.6148949865564077   T   T   T
  0.3031160087628777  0.4291721700923716  0.6096288889180670   T   T   T
  0.1710646186469162  0.3459181619320546  0.6130595154835277   T   T   T
 
  0.00000000E+00  0.00000000E+00  0.00000000E+00
  0.00000000E+00  0.00000000E+00  0.00000000E+00
  0.00000000E+00  0.00000000E+00  0.00000000E+00
  0.00000000E+00  0.00000000E+00  0.00000000E+00
  0.00000000E+00  0.00000000E+00  0.00000000E+00
  0.00000000E+00  0.00000000E+00  0.00000000E+00
  0.00000000E+00  0.00000000E+00  0.00000000E+00
  0.00000000E+00  0.00000000E+00  0.00000000E+00
  0.00000000E+00  0.00000000E+00  0.00000000E+00
  0.00000000E+00  0.00000000E+00  0.00000000E+00
  0.00000000E+00  0.00000000E+00  0.00000000E+00
  0.00000000E+00  0.00000000E+00  0.00000000E+00
  0.00000000E+00  0.00000000E+00  0.00000000E+00
  0.00000000E+00  0.00000000E+00  0.00000000E+00
  0.00000000E+00  0.00000000E+00  0.00000000E+00
  0.00000000E+00  0.00000000E+00  0.00000000E+00
  0.00000000E+00  0.00000000E+00  0.00000000E+00
  0.00000000E+00  0.00000000E+00  0.00000000E+00
  0.00000000E+00  0.00000000E+00  0.00000000E+00
  0.00000000E+00  0.00000000E+00  0.00000000E+00
  0.00000000E+00  0.00000000E+00  0.00000000E+00
  0.00000000E+00  0.00000000E+00  0.00000000E+00
  0.00000000E+00  0.00000000E+00  0.00000000E+00
  0.00000000E+00  0.00000000E+00  0.00000000E+00
  0.00000000E+00  0.00000000E+00  0.00000000E+00
  0.00000000E+00  0.00000000E+00  0.00000000E+00
  0.00000000E+00  0.00000000E+00  0.00000000E+00
  0.00000000E+00  0.00000000E+00  0.00000000E+00
  0.00000000E+00  0.00000000E+00  0.00000000E+00
  0.00000000E+00  0.00000000E+00  0.00000000E+00
  0.00000000E+00  0.00000000E+00  0.00000000E+00
  0.00000000E+00  0.00000000E+00  0.00000000E+00
  0.00000000E+00  0.00000000E+00  0.00000000E+00
  0.00000000E+00  0.00000000E+00  0.00000000E+00
  0.00000000E+00  0.00000000E+00  0.00000000E+00
  0.00000000E+00  0.00000000E+00  0.00000000E+00
  0.00000000E+00  0.00000000E+00  0.00000000E+00
  0.00000000E+00  0.00000000E+00  0.00000000E+00
  0.00000000E+00  0.00000000E+00  0.00000000E+00
  0.00000000E+00  0.00000000E+00  0.00000000E+00
  0.00000000E+00  0.00000000E+00  0.00000000E+00
  0.00000000E+00  0.00000000E+00  0.00000000E+00
  0.00000000E+00  0.00000000E+00  0.00000000E+00
  0.00000000E+00  0.00000000E+00  0.00000000E+00
  0.00000000E+00  0.00000000E+00  0.00000000E+00
  0.00000000E+00  0.00000000E+00  0.00000000E+00
  0.00000000E+00  0.00000000E+00  0.00000000E+00
  0.00000000E+00  0.00000000E+00  0.00000000E+00
  0.00000000E+00  0.00000000E+00  0.00000000E+00
  0.00000000E+00  0.00000000E+00  0.00000000E+00
  0.00000000E+00  0.00000000E+00  0.00000000E+00
  0.00000000E+00  0.00000000E+00  0.00000000E+00
  0.00000000E+00  0.00000000E+00  0.00000000E+00
  0.00000000E+00  0.00000000E+00  0.00000000E+00
  0.00000000E+00  0.00000000E+00  0.00000000E+00
  0.00000000E+00  0.00000000E+00  0.00000000E+00
  0.00000000E+00  0.00000000E+00  0.00000000E+00
  0.00000000E+00  0.00000000E+00  0.00000000E+00
  0.00000000E+00  0.00000000E+00  0.00000000E+00
  0.00000000E+00  0.00000000E+00  0.00000000E+00
  0.00000000E+00  0.00000000E+00  0.00000000E+00
  0.00000000E+00  0.00000000E+00  0.00000000E+00
  0.00000000E+00  0.00000000E+00  0.00000000E+00
  0.00000000E+00  0.00000000E+00  0.00000000E+00
  0.00000000E+00  0.00000000E+00  0.00000000E+00
  0.00000000E+00  0.00000000E+00  0.00000000E+00
  0.00000000E+00  0.00000000E+00  0.00000000E+00
  0.00000000E+00  0.00000000E+00  0.00000000E+00
  0.00000000E+00  0.00000000E+00  0.00000000E+00
  0.00000000E+00  0.00000000E+00  0.00000000E+00
  0.00000000E+00  0.00000000E+00  0.00000000E+00
  0.00000000E+00  0.00000000E+00  0.00000000E+00
  0.00000000E+00  0.00000000E+00  0.00000000E+00
  0.00000000E+00  0.00000000E+00  0.00000000E+00
  0.00000000E+00  0.00000000E+00  0.00000000E+00
  0.00000000E+00  0.00000000E+00  0.00000000E+00
  0.00000000E+00  0.00000000E+00  0.00000000E+00
  0.00000000E+00  0.00000000E+00  0.00000000E+00
  0.00000000E+00  0.00000000E+00  0.00000000E+00
  0.00000000E+00  0.00000000E+00  0.00000000E+00
  0.00000000E+00  0.00000000E+00  0.00000000E+00
  0.00000000E+00  0.00000000E+00  0.00000000E+00
  0.00000000E+00  0.00000000E+00  0.00000000E+00
  0.00000000E+00  0.00000000E+00  0.00000000E+00
  0.00000000E+00  0.00000000E+00  0.00000000E+00
  0.00000000E+00  0.00000000E+00  0.00000000E+00
  0.00000000E+00  0.00000000E+00  0.00000000E+00
  0.00000000E+00  0.00000000E+00  0.00000000E+00
  0.00000000E+00  0.00000000E+00  0.00000000E+00
  0.00000000E+00  0.00000000E+00  0.00000000E+00
  0.00000000E+00  0.00000000E+00  0.00000000E+00
  0.00000000E+00  0.00000000E+00  0.00000000E+00
  0.00000000E+00  0.00000000E+00  0.00000000E+00
  0.00000000E+00  0.00000000E+00  0.00000000E+00
  0.00000000E+00  0.00000000E+00  0.00000000E+00
  0.00000000E+00  0.00000000E+00  0.00000000E+00
  0.00000000E+00  0.00000000E+00  0.00000000E+00
  0.00000000E+00  0.00000000E+00  0.00000000E+00
  0.00000000E+00  0.00000000E+00  0.00000000E+00
  0.00000000E+00  0.00000000E+00  0.00000000E+00
  0.00000000E+00  0.00000000E+00  0.00000000E+00
  0.00000000E+00  0.00000000E+00  0.00000000E+00
  0.00000000E+00  0.00000000E+00  0.00000000E+00
  0.00000000E+00  0.00000000E+00  0.00000000E+00
  0.00000000E+00  0.00000000E+00  0.00000000E+00
  0.00000000E+00  0.00000000E+00  0.00000000E+00
  0.00000000E+00  0.00000000E+00  0.00000000E+00
  0.00000000E+00  0.00000000E+00  0.00000000E+00
  0.00000000E+00  0.00000000E+00  0.00000000E+00
  0.00000000E+00  0.00000000E+00  0.00000000E+00
  0.00000000E+00  0.00000000E+00  0.00000000E+00
  0.00000000E+00  0.00000000E+00  0.00000000E+00
  0.00000000E+00  0.00000000E+00  0.00000000E+00
  0.00000000E+00  0.00000000E+00  0.00000000E+00
  0.00000000E+00  0.00000000E+00  0.00000000E+00
  0.00000000E+00  0.00000000E+00  0.00000000E+00
  0.00000000E+00  0.00000000E+00  0.00000000E+00
  0.00000000E+00  0.00000000E+00  0.00000000E+00
  0.00000000E+00  0.00000000E+00  0.00000000E+00
  0.00000000E+00  0.00000000E+00  0.00000000E+00
  0.00000000E+00  0.00000000E+00  0.00000000E+00
  0.00000000E+00  0.00000000E+00  0.00000000E+00
  0.00000000E+00  0.00000000E+00  0.00000000E+00
  0.00000000E+00  0.00000000E+00  0.00000000E+00
  0.00000000E+00  0.00000000E+00  0.00000000E+00
  0.00000000E+00  0.00000000E+00  0.00000000E+00
  0.00000000E+00  0.00000000E+00  0.00000000E+00
  0.00000000E+00  0.00000000E+00  0.00000000E+00
  0.00000000E+00  0.00000000E+00  0.00000000E+00
  0.00000000E+00  0.00000000E+00  0.00000000E+00
  0.00000000E+00  0.00000000E+00  0.00000000E+00
  0.00000000E+00  0.00000000E+00  0.00000000E+00
  0.00000000E+00  0.00000000E+00  0.00000000E+00
  0.00000000E+00  0.00000000E+00  0.00000000E+00
  0.00000000E+00  0.00000000E+00  0.00000000E+00
  0.00000000E+00  0.00000000E+00  0.00000000E+00
  0.00000000E+00  0.00000000E+00  0.00000000E+00
  0.00000000E+00  0.00000000E+00  0.00000000E+00
