C F O                                   
   1.00000000000000     
    23.2635034800000007    0.0000000000000000    0.0000000000000000
     0.0000000000000000   28.0397705500000001    0.0000000000000000
     0.0000000000000000    0.0000000000000000   23.1822397299999992
   C    F    O 
     6    11     2
Selective dynamics
Direct
  0.4954054504255805  0.6069786873506263  0.5122059512169066   T   T   T
  0.5276516752378152  0.5594288132693485  0.5016279385272668   T   T   T
  0.4881679248882173  0.5147728909857697  0.5000181210699816   T   T   T
  0.5205236770742107  0.4668732377812570  0.5084027432858090   T   T   T
  0.4867612610783525  0.4218890726296026  0.4902201725985330   T   T   T
  0.5115780390694020  0.3748436874969345  0.5164627593159345   T   T   T
  0.4504474323987103  0.6107759804883036  0.4763262280908688   T   T   T
  0.4767554424264709  0.6098919182678553  0.5666487592292521   T   T   T
  0.5313540049452499  0.6433909682365925  0.5024019142043360   T   T   T
  0.5554725493232868  0.5632533359392843  0.4506611806279682   T   T   T
  0.5670042014967202  0.5544881617514992  0.5442593642003113   T   T   T
  0.4479767856292164  0.5195290776289258  0.5419787818725120   T   T   T
  0.4611555781730212  0.5141359870970531  0.4482003605495914   T   T   T
  0.5703362054559471  0.4697244670339701  0.4781210215053702   T   T   T
  0.5335812819829212  0.4627805982266785  0.5654463009216006   T   T   T
  0.4306065698968874  0.4292858194768500  0.5056425155884872   T   T   T
  0.4877028064585702  0.4192562386909556  0.4310853400450996   T   T   T
  0.5629027432479942  0.3680706492639302  0.5033105508696130   T   T   T
  0.4776193695283995  0.3507782318825827  0.5458171237095681   T   T   T
 
  0.00000000E+00  0.00000000E+00  0.00000000E+00
  0.00000000E+00  0.00000000E+00  0.00000000E+00
  0.00000000E+00  0.00000000E+00  0.00000000E+00
  0.00000000E+00  0.00000000E+00  0.00000000E+00
  0.00000000E+00  0.00000000E+00  0.00000000E+00
  0.00000000E+00  0.00000000E+00  0.00000000E+00
  0.00000000E+00  0.00000000E+00  0.00000000E+00
  0.00000000E+00  0.00000000E+00  0.00000000E+00
  0.00000000E+00  0.00000000E+00  0.00000000E+00
  0.00000000E+00  0.00000000E+00  0.00000000E+00
  0.00000000E+00  0.00000000E+00  0.00000000E+00
  0.00000000E+00  0.00000000E+00  0.00000000E+00
  0.00000000E+00  0.00000000E+00  0.00000000E+00
  0.00000000E+00  0.00000000E+00  0.00000000E+00
  0.00000000E+00  0.00000000E+00  0.00000000E+00
  0.00000000E+00  0.00000000E+00  0.00000000E+00
  0.00000000E+00  0.00000000E+00  0.00000000E+00
  0.00000000E+00  0.00000000E+00  0.00000000E+00
  0.00000000E+00  0.00000000E+00  0.00000000E+00
