B N C F O                               
   1.00000000000000     
     7.5365500567000003  -13.0537460594369996    0.0000000000000000
     7.5365500567000003   13.0537460594369996    0.0000000000000000
     0.0000000000000000    0.0000000000000000   35.1146643855649998
   B    N    C    F    O 
    36    36     3     5     2
Selective dynamics
Direct
  0.1110896868062484  0.0555614933025997  0.5000201916370879   T   T   T
  0.1110833601105944  0.2222292371620920  0.4999834861927629   T   T   T
  0.1111000557077035  0.3888980352435851  0.4999591011994705   T   T   T
  0.1111078297831895  0.5555698182369062  0.4999649366398680   T   T   T
  0.1111053732903734  0.7222385299349799  0.5000208453311954   T   T   T
  0.1111054836060836  0.8888986694329424  0.5000467396551096   T   T   T
  0.2777723112306439  0.0555617027815436  0.5000446609953249   T   T   T
  0.2777558942533097  0.2222119551549445  0.4999812000290855   T   T   T
  0.2777632241941888  0.3889037963688658  0.4999524760679387   T   T   T
  0.2777724958841398  0.5555693943766324  0.4999558521577516   T   T   T
  0.2777711534561296  0.7222345951765889  0.4999740586533763   T   T   T
  0.2777711399593607  0.8888985891001082  0.5000382249191848   T   T   T
  0.4444424290292307  0.0555612246401231  0.5000499314593416   T   T   T
  0.4444406380338679  0.2222337887455172  0.5000534771435511   T   T   T
  0.4444648883697242  0.3889093783218803  0.4999947098453243   T   T   T
  0.4444526029958919  0.5555919223688952  0.4999911091400859   T   T   T
  0.4444405284271496  0.7222384696250566  0.4999644616397029   T   T   T
  0.4444360882817669  0.8889021738549066  0.5000058273822171   T   T   T
  0.6111049246565385  0.0555689108287840  0.5000345516413348   T   T   T
  0.6111078349953438  0.2222291410467148  0.5000485382211419   T   T   T
  0.6111142635269537  0.3889053783634697  0.5000204141167542   T   T   T
  0.6111108275186407  0.5555758570241230  0.4999801766110821   T   T   T
  0.6111036314337680  0.7222427217375608  0.4999690374544219   T   T   T
  0.6110987879335610  0.8889064201658294  0.4999934536809086   T   T   T
  0.7777674130452252  0.0555762927869832  0.5000233889643909   T   T   T
  0.7777715496549111  0.2222446345710842  0.5000266482769949   T   T   T
  0.7777743873099361  0.3889093001841191  0.5000244104040096   T   T   T
  0.7777712052574444  0.5555767262457953  0.5000052238408528   T   T   T
  0.7777669502734378  0.7222423041779861  0.4999969323662086   T   T   T
  0.7777641952238434  0.8889089746478009  0.5000095906489298   T   T   T
  0.9444279915145022  0.0555724739134838  0.5000179646376091   T   T   T
  0.9444324982159876  0.2222414994238534  0.4999925885758964   T   T   T
  0.9444411228703529  0.3889147636951878  0.4999900712040394   T   T   T
  0.9444410126903534  0.5555801414727838  0.5000145489767911   T   T   T
  0.9444359636679566  0.7222383818560144  0.5000309071889735   T   T   T
  0.9444335649617239  0.8889029900941376  0.5000335322612941   T   T   T
  0.0555437713015174  0.1111274020552881  0.5000069462316677   T   T   T
  0.0555467522834033  0.2777920247473983  0.4999672990371578   T   T   T
  0.0555514275676869  0.4444608948819772  0.4999561571864198   T   T   T
  0.0555524008427115  0.6111298600969333  0.4999988515691070   T   T   T
  0.0555476770604096  0.7777920338796229  0.5000464563946289   T   T   T
  0.0555434518497158  0.9444548762165705  0.5000459690545798   T   T   T
  0.2222075905146297  0.1111174097146536  0.5000130041816150   T   T   T
  0.2222163421408175  0.2777889813824451  0.4999857252598683   T   T   T
  0.2222173860098269  0.4444525825776218  0.4999504503212264   T   T   T
  0.2222190136309326  0.6111245778628445  0.4999439200490827   T   T   T
  0.2222156378436186  0.7777914874468674  0.5000129696325345   T   T   T
  0.2222145197975290  0.9444547841932375  0.5000562500753863   T   T   T
  0.3888811541718912  0.1111187979499105  0.5000668166209223   T   T   T
  0.3888786399626961  0.2777899531629470  0.5000534245718342   T   T   T
  0.3888755713655941  0.4444468210094044  0.5000585210976197   T   T   T
  0.3888838635931568  0.6111207028190375  0.4999673486945558   T   T   T
  0.3888828102384413  0.7777916198389568  0.4999702686942105   T   T   T
  0.3888800488264337  0.9444562920263453  0.5000382207769121   T   T   T
  0.5555472738031749  0.1111241145269546  0.5000511831720214   T   T   T
  0.5555508668304086  0.2777908710372372  0.5000593919309700   T   T   T
  0.5555559550375474  0.4444641134454021  0.4999927594099908   T   T   T
  0.5555465058507510  0.6111273385526631  0.4999644609134902   T   T   T
  0.5555464903469595  0.7777952141242787  0.4999608818360537   T   T   T
  0.5555460485507538  0.9444617340616858  0.5000107915903083   T   T   T
  0.7222143197109610  0.1111320925177305  0.5000378761136253   T   T   T
  0.7222168030514644  0.2777994947384904  0.5000389984330282   T   T   T
  0.7222192349035874  0.4444683241097871  0.5000135337984040   T   T   T
  0.7222151984712236  0.6111349977274715  0.4999823880477329   T   T   T
  0.7222113459771994  0.7777992415860063  0.4999845887277743   T   T   T
  0.7222093951472557  0.9444655003441056  0.5000117022496445   T   T   T
  0.8888766549051297  0.1111327150339061  0.5000141713897790   T   T   T
  0.8888817181089359  0.2778027357645884  0.4999976679858781   T   T   T
  0.8888862138243455  0.4444709148121294  0.5000147527546875   T   T   T
  0.8888828015922856  0.6111336790578143  0.5000220548798717   T   T   T
  0.8888781845619306  0.7777953247594566  0.5000247476359824   T   T   T
  0.8888761474076777  0.9444625582705900  0.5000291123313377   T   T   T
  0.3734397520895576  0.3138265103374580  0.6727918054891703   T   T   T
  0.3550028942354764  0.3119397210566313  0.6294847015215207   T   T   T
  0.3429524377344185  0.4223375224505216  0.6171306113800489   T   T   T
  0.4618956963584190  0.3964993918166487  0.6823253168789019   T   T   T
  0.3774705078315271  0.2297940055942989  0.6825989630552545   T   T   T
  0.2967430943860124  0.3139722497235229  0.6918219407905484   T   T   T
  0.4334710575257636  0.3178258879026739  0.6101243311639407   T   T   T
  0.2690903207877214  0.2275625677840728  0.6198650817217125   T   T   T
  0.4291942389610825  0.4932366559843506  0.6132283046105905   T   T   T
  0.2524332155780186  0.3939315305940922  0.6163651847076779   T   T   T
 
             NaN             NaN             NaN
             NaN             NaN             NaN
             NaN             NaN             NaN
             NaN             NaN             NaN
             NaN             NaN             NaN
             NaN             NaN             NaN
             NaN             NaN             NaN
             NaN             NaN             NaN
             NaN             NaN             NaN
             NaN             NaN             NaN
             NaN             NaN             NaN
             NaN             NaN             NaN
             NaN             NaN             NaN
             NaN             NaN             NaN
             NaN             NaN             NaN
             NaN             NaN             NaN
             NaN             NaN             NaN
             NaN             NaN             NaN
             NaN             NaN             NaN
             NaN             NaN             NaN
             NaN             NaN             NaN
             NaN             NaN             NaN
             NaN             NaN             NaN
             NaN             NaN             NaN
             NaN             NaN             NaN
             NaN             NaN             NaN
             NaN             NaN             NaN
             NaN             NaN             NaN
             NaN             NaN             NaN
             NaN             NaN             NaN
             NaN             NaN             NaN
             NaN             NaN             NaN
             NaN             NaN             NaN
             NaN             NaN             NaN
             NaN             NaN             NaN
             NaN             NaN             NaN
             NaN             NaN             NaN
             NaN             NaN             NaN
             NaN             NaN             NaN
             NaN             NaN             NaN
             NaN             NaN             NaN
             NaN             NaN             NaN
             NaN             NaN             NaN
             NaN             NaN             NaN
             NaN             NaN             NaN
             NaN             NaN             NaN
             NaN             NaN             NaN
             NaN             NaN             NaN
             NaN             NaN             NaN
             NaN             NaN             NaN
             NaN             NaN             NaN
             NaN             NaN             NaN
             NaN             NaN             NaN
             NaN             NaN             NaN
             NaN             NaN             NaN
             NaN             NaN             NaN
             NaN             NaN             NaN
             NaN             NaN             NaN
             NaN             NaN             NaN
             NaN             NaN             NaN
             NaN             NaN             NaN
             NaN             NaN             NaN
             NaN             NaN             NaN
             NaN             NaN             NaN
             NaN             NaN             NaN
             NaN             NaN             NaN
             NaN             NaN             NaN
             NaN             NaN             NaN
             NaN             NaN             NaN
             NaN             NaN             NaN
             NaN             NaN             NaN
             NaN             NaN             NaN
             NaN             NaN             NaN
             NaN             NaN             NaN
             NaN             NaN             NaN
             NaN             NaN             NaN
             NaN             NaN             NaN
             NaN             NaN             NaN
             NaN             NaN             NaN
             NaN             NaN             NaN
             NaN             NaN             NaN
             NaN             NaN             NaN
