B N C F O                               
   1.00000000000000     
     7.5365500567000003  -13.0537460594369996    0.0000000000000000
     7.5365500567000003   13.0537460594369996    0.0000000000000000
     0.0000000000000000    0.0000000000000000   35.1146643855649998
   B    N    C    F    O 
    36    36     3     5     2
Selective dynamics
Direct
  0.1110880267916201  0.0555597435440163  0.5000199378400936   T   T   T
  0.1110876679441262  0.2222283707357349  0.4999835080350792   T   T   T
  0.1110952020020406  0.3888954736199253  0.4999589298777636   T   T   T
  0.1111086122189420  0.5555703169346344  0.4999653708999006   T   T   T
  0.1111061188744316  0.7222381261993220  0.5000208189811630   T   T   T
  0.1111038313185091  0.8888957959064783  0.5000466550588456   T   T   T
  0.2777707153472875  0.0555579302079892  0.5000441462231038   T   T   T
  0.2777527192686833  0.2222098216449524  0.4999805353938171   T   T   T
  0.2777535100520083  0.3888913922102830  0.4999528161285411   T   T   T
  0.2777736143402691  0.5555709105738416  0.4999557869444899   T   T   T
  0.2777735227356217  0.7222359483871372  0.4999745316630282   T   T   T
  0.2777712334275506  0.8888981155793729  0.5000378350220629   T   T   T
  0.4444404852981236  0.0555604475428524  0.5000497126374910   T   T   T
  0.4444511836086704  0.2222147724849535  0.5000533147528401   T   T   T
  0.4444672781991770  0.3889111505034748  0.4999934568774123   T   T   T
  0.4444525535626767  0.5555886329044952  0.4999902330548309   T   T   T
  0.4444421627253163  0.7222409152557958  0.4999645538495869   T   T   T
  0.4444375371721065  0.8889018670511390  0.5000059355315187   T   T   T
  0.6111062195541805  0.0555703581007592  0.5000344519880002   T   T   T
  0.6111086233688567  0.2222290577483363  0.5000483365034540   T   T   T
  0.6111182833738482  0.3889038974522023  0.5000196373863801   T   T   T
  0.6111141453435778  0.5555847376214800  0.4999794190118649   T   T   T
  0.6111057852073500  0.7222443252703670  0.4999689056374450   T   T   T
  0.6111000767212147  0.8889059042833196  0.4999935116321623   T   T   T
  0.7777675176520518  0.0555744139733747  0.5000233333438260   T   T   T
  0.7777726727031293  0.2222405437840891  0.5000262062225858   T   T   T
  0.7777770963342761  0.3889141203668842  0.5000243870812042   T   T   T
  0.7777731865915527  0.5555810462019863  0.5000049801399413   T   T   T
  0.7777684709392432  0.7222442337167720  0.4999969966951383   T   T   T
  0.7777649498890469  0.8889098145214476  0.5000098004151639   T   T   T
  0.9444269390006568  0.0555702675851890  0.5000180737015683   T   T   T
  0.9444294831914846  0.2222420095585278  0.4999926318571326   T   T   T
  0.9444406001141203  0.3889132559900830  0.4999904069112802   T   T   T
  0.9444432705744958  0.5555813915794587  0.5000145700169867   T   T   T
  0.9444380063558242  0.7222396936693798  0.5000307028217534   T   T   T
  0.9444317284805521  0.8889012883679683  0.5000336940006278   T   T   T
  0.0555442144292968  0.1111279144235695  0.5000064762088599   T   T   T
  0.0555490503906029  0.2777930458622748  0.4999673419470696   T   T   T
  0.0555550696904064  0.4444614962294509  0.4999568341333784   T   T   T
  0.0555531384245995  0.6111297352767764  0.4999991620389252   T   T   T
  0.0555480701422439  0.7777925895095024  0.5000467074541319   T   T   T
  0.0555454131212088  0.9444569205044999  0.5000461185457254   T   T   T
  0.2222094002337585  0.1111187832542697  0.5000121793334102   T   T   T
  0.2222245056613374  0.2777987179698016  0.4999855432118636   T   T   T
  0.2222218468742696  0.4444562271141166  0.4999502941303504   T   T   T
  0.2222191822187938  0.6111225237732754  0.4999442525875253   T   T   T
  0.2222167688349188  0.7777905755934427  0.5000129137683089   T   T   T
  0.2222162716863991  0.9444566187043364  0.5000552127343525   T   T   T
  0.3888838335465010  0.1111291053488443  0.5000662678777417   T   T   T
  0.3888729463293714  0.2777987907171777  0.5000520284238235   T   T   T
  0.3888844099490285  0.4444515474098267  0.5000570741571337   T   T   T
  0.3888813421791610  0.6111186548074699  0.4999668560834394   T   T   T
  0.3888814249005677  0.7777893999507057  0.4999708564578143   T   T   T
  0.3888802800824820  0.9444559670075776  0.5000379262486021   T   T   T
  0.5555477948933358  0.1111231268759525  0.5000506353713803   T   T   T
  0.5555457936555683  0.2777935869044228  0.5000584274408268   T   T   T
  0.5555494599471373  0.4444592417788797  0.4999916702629932   T   T   T
  0.5555454929896939  0.6111252538495719  0.4999639072364488   T   T   T
  0.5555460544692536  0.7777927982686208  0.4999608302284386   T   T   T
  0.5555448504966876  0.9444615557551685  0.5000105851865868   T   T   T
  0.7222144220365081  0.1111340953517299  0.5000380421544364   T   T   T
  0.7222152222557341  0.2777980618483298  0.5000386362872433   T   T   T
  0.7222187291133579  0.4444660228970818  0.5000131213810022   T   T   T
  0.7222138897635801  0.6111304865043223  0.4999824835511291   T   T   T
  0.7222096553113104  0.7777970518042281  0.4999849544049582   T   T   T
  0.7222093593388550  0.9444651017820291  0.5000115745339642   T   T   T
  0.8888784906904448  0.1111331814127254  0.5000143708198692   T   T   T
  0.8888831743276597  0.2778033744895723  0.4999977376597329   T   T   T
  0.8888856798846305  0.4444691333381314  0.5000149106032126   T   T   T
  0.8888821713190467  0.6111320079189611  0.5000215565590551   T   T   T
  0.8888784260271052  0.7777942825613380  0.5000244760873755   T   T   T
  0.8888768238137601  0.9444628218031923  0.5000293957084878   T   T   T
  0.3734376960946335  0.3138086877168078  0.6727989649887505   T   T   T
  0.3550035801193374  0.3119982699436434  0.6294753007930822   T   T   T
  0.3429005444647615  0.4222688213806052  0.6171367414450799   T   T   T
  0.4619040926719507  0.3964779092377526  0.6823293243757220   T   T   T
  0.3774767839571922  0.2297822179765703  0.6826030249301596   T   T   T
  0.2967509903392909  0.3139496940342994  0.6918283246053960   T   T   T
  0.4334384026688340  0.3178050907040344  0.6101332777084139   T   T   T
  0.2690967148637142  0.2275694987198520  0.6198725110249228   T   T   T
  0.4291703641199831  0.4932863665459024  0.6132195957500670   T   T   T
  0.2524808821297455  0.3939913497018495  0.6163526225500178   T   T   T
 
  0.00000000E+00  0.00000000E+00  0.00000000E+00
  0.00000000E+00  0.00000000E+00  0.00000000E+00
  0.00000000E+00  0.00000000E+00  0.00000000E+00
  0.00000000E+00  0.00000000E+00  0.00000000E+00
  0.00000000E+00  0.00000000E+00  0.00000000E+00
  0.00000000E+00  0.00000000E+00  0.00000000E+00
  0.00000000E+00  0.00000000E+00  0.00000000E+00
  0.00000000E+00  0.00000000E+00  0.00000000E+00
  0.00000000E+00  0.00000000E+00  0.00000000E+00
  0.00000000E+00  0.00000000E+00  0.00000000E+00
  0.00000000E+00  0.00000000E+00  0.00000000E+00
  0.00000000E+00  0.00000000E+00  0.00000000E+00
  0.00000000E+00  0.00000000E+00  0.00000000E+00
  0.00000000E+00  0.00000000E+00  0.00000000E+00
  0.00000000E+00  0.00000000E+00  0.00000000E+00
  0.00000000E+00  0.00000000E+00  0.00000000E+00
  0.00000000E+00  0.00000000E+00  0.00000000E+00
  0.00000000E+00  0.00000000E+00  0.00000000E+00
  0.00000000E+00  0.00000000E+00  0.00000000E+00
  0.00000000E+00  0.00000000E+00  0.00000000E+00
  0.00000000E+00  0.00000000E+00  0.00000000E+00
  0.00000000E+00  0.00000000E+00  0.00000000E+00
  0.00000000E+00  0.00000000E+00  0.00000000E+00
  0.00000000E+00  0.00000000E+00  0.00000000E+00
  0.00000000E+00  0.00000000E+00  0.00000000E+00
  0.00000000E+00  0.00000000E+00  0.00000000E+00
  0.00000000E+00  0.00000000E+00  0.00000000E+00
  0.00000000E+00  0.00000000E+00  0.00000000E+00
  0.00000000E+00  0.00000000E+00  0.00000000E+00
  0.00000000E+00  0.00000000E+00  0.00000000E+00
  0.00000000E+00  0.00000000E+00  0.00000000E+00
  0.00000000E+00  0.00000000E+00  0.00000000E+00
  0.00000000E+00  0.00000000E+00  0.00000000E+00
  0.00000000E+00  0.00000000E+00  0.00000000E+00
  0.00000000E+00  0.00000000E+00  0.00000000E+00
  0.00000000E+00  0.00000000E+00  0.00000000E+00
  0.00000000E+00  0.00000000E+00  0.00000000E+00
  0.00000000E+00  0.00000000E+00  0.00000000E+00
  0.00000000E+00  0.00000000E+00  0.00000000E+00
  0.00000000E+00  0.00000000E+00  0.00000000E+00
  0.00000000E+00  0.00000000E+00  0.00000000E+00
  0.00000000E+00  0.00000000E+00  0.00000000E+00
  0.00000000E+00  0.00000000E+00  0.00000000E+00
  0.00000000E+00  0.00000000E+00  0.00000000E+00
  0.00000000E+00  0.00000000E+00  0.00000000E+00
  0.00000000E+00  0.00000000E+00  0.00000000E+00
  0.00000000E+00  0.00000000E+00  0.00000000E+00
  0.00000000E+00  0.00000000E+00  0.00000000E+00
  0.00000000E+00  0.00000000E+00  0.00000000E+00
  0.00000000E+00  0.00000000E+00  0.00000000E+00
  0.00000000E+00  0.00000000E+00  0.00000000E+00
  0.00000000E+00  0.00000000E+00  0.00000000E+00
  0.00000000E+00  0.00000000E+00  0.00000000E+00
  0.00000000E+00  0.00000000E+00  0.00000000E+00
  0.00000000E+00  0.00000000E+00  0.00000000E+00
  0.00000000E+00  0.00000000E+00  0.00000000E+00
  0.00000000E+00  0.00000000E+00  0.00000000E+00
  0.00000000E+00  0.00000000E+00  0.00000000E+00
  0.00000000E+00  0.00000000E+00  0.00000000E+00
  0.00000000E+00  0.00000000E+00  0.00000000E+00
  0.00000000E+00  0.00000000E+00  0.00000000E+00
  0.00000000E+00  0.00000000E+00  0.00000000E+00
  0.00000000E+00  0.00000000E+00  0.00000000E+00
  0.00000000E+00  0.00000000E+00  0.00000000E+00
  0.00000000E+00  0.00000000E+00  0.00000000E+00
  0.00000000E+00  0.00000000E+00  0.00000000E+00
  0.00000000E+00  0.00000000E+00  0.00000000E+00
  0.00000000E+00  0.00000000E+00  0.00000000E+00
  0.00000000E+00  0.00000000E+00  0.00000000E+00
  0.00000000E+00  0.00000000E+00  0.00000000E+00
  0.00000000E+00  0.00000000E+00  0.00000000E+00
  0.00000000E+00  0.00000000E+00  0.00000000E+00
  0.00000000E+00  0.00000000E+00  0.00000000E+00
  0.00000000E+00  0.00000000E+00  0.00000000E+00
  0.00000000E+00  0.00000000E+00  0.00000000E+00
  0.00000000E+00  0.00000000E+00  0.00000000E+00
  0.00000000E+00  0.00000000E+00  0.00000000E+00
  0.00000000E+00  0.00000000E+00  0.00000000E+00
  0.00000000E+00  0.00000000E+00  0.00000000E+00
  0.00000000E+00  0.00000000E+00  0.00000000E+00
  0.00000000E+00  0.00000000E+00  0.00000000E+00
  0.00000000E+00  0.00000000E+00  0.00000000E+00
