B N O                                   
   1.00000000000000     
     5.0243667044670000   -8.7024973729579997    0.0000000000000000
     5.0243667044670000    8.7024973729579997    0.0000000000000000
     0.0000000000000000    0.0000000000000000   35.1146643855649998
   B    N    O 
    15    17     2
Selective dynamics
Direct
  0.1667397195383487  0.0834783302258799  0.5000057550935466   T   T   T
  0.1671468320644180  0.3351541228365846  0.5000105690431624   T   T   T
  0.1671456935300242  0.5819901676640669  0.5000080959398190   T   T   T
  0.1667393873008649  0.8332611522628426  0.5000049724486288   T   T   T
  0.4166900618697866  0.0833466295842200  0.5000048405940944   T   T   T
  0.4180082899147450  0.3351551547989189  0.5000138983305575   T   T   T
  0.4180103235656674  0.8328547936905792  0.5000080749204940   T   T   T
  0.6668054753845780  0.0836121619850019  0.5000036193500179   T   T   T
  0.6668041998055187  0.3331963502162480  0.5000049303691512   T   T   T
  0.6648454510286115  0.5819923607459501  0.5000136117037073   T   T   T
  0.6648464914658518  0.8328536428552624  0.5000102097168764   T   T   T
  0.9166557869334895  0.0833448597200430  0.5000041800951678   T   T   T
  0.9163883798712007  0.3331950639149284  0.5000035793911906   T   T   T
  0.9166539429819736  0.5833104623542908  0.5000048598547338   T   T   T
  0.9165222596625924  0.8332608654190281  0.5000057780144402   T   T   T
  0.4166680307262354  0.5833323656633951  0.5000235795072285   T   T   T
  0.0847069523227901  0.1680098501329468  0.5000007023507109   T   T   T
  0.0830081518047052  0.4165034004725428  0.5000002087440762   T   T   T
  0.0847069225417911  0.6666957906619615  0.5000011562922140   T   T   T
  0.0833341292863850  0.9166664290234010  0.4999989598893464   T   T   T
  0.3333037014247680  0.1680104988215234  0.5000010619733004   T   T   T
  0.3355420870357335  0.4210836854688011  0.4999847184045549   T   T   T
  0.3355424911718643  0.6644579594316156  0.4999876746937844   T   T   T
  0.3333047383070351  0.9152936157024598  0.5000011454068201   T   T   T
  0.5831471456324380  0.1665747788912526  0.4999984717981718   T   T   T
  0.5789176648685839  0.6644588589592502  0.4999841243721050   T   T   T
  0.5834970894901161  0.9169923033387803  0.5000002891388462   T   T   T
  0.8334266944093756  0.1665738395429557  0.4999984111192930   T   T   T
  0.8334257550062318  0.4168533875578362  0.4999984598416916   T   T   T
  0.8319900944378276  0.6666968413970835  0.5000011156812150   T   T   T
  0.8319907944118299  0.9152936954550626  0.5000007287804422   T   T   T
  0.5834951857152149  0.4165053753447765  0.5000016735811101   T   T   T
  0.4008137896165280  0.4689158265520419  0.6261322168858428   T   T   T
  0.5281637324658846  0.5962701200334521  0.6261321080776838   T   T   T
 
  0.00000000E+00  0.00000000E+00  0.00000000E+00
  0.00000000E+00  0.00000000E+00  0.00000000E+00
  0.00000000E+00  0.00000000E+00  0.00000000E+00
  0.00000000E+00  0.00000000E+00  0.00000000E+00
  0.00000000E+00  0.00000000E+00  0.00000000E+00
  0.00000000E+00  0.00000000E+00  0.00000000E+00
  0.00000000E+00  0.00000000E+00  0.00000000E+00
  0.00000000E+00  0.00000000E+00  0.00000000E+00
  0.00000000E+00  0.00000000E+00  0.00000000E+00
  0.00000000E+00  0.00000000E+00  0.00000000E+00
  0.00000000E+00  0.00000000E+00  0.00000000E+00
  0.00000000E+00  0.00000000E+00  0.00000000E+00
  0.00000000E+00  0.00000000E+00  0.00000000E+00
  0.00000000E+00  0.00000000E+00  0.00000000E+00
  0.00000000E+00  0.00000000E+00  0.00000000E+00
  0.00000000E+00  0.00000000E+00  0.00000000E+00
  0.00000000E+00  0.00000000E+00  0.00000000E+00
  0.00000000E+00  0.00000000E+00  0.00000000E+00
  0.00000000E+00  0.00000000E+00  0.00000000E+00
  0.00000000E+00  0.00000000E+00  0.00000000E+00
  0.00000000E+00  0.00000000E+00  0.00000000E+00
  0.00000000E+00  0.00000000E+00  0.00000000E+00
  0.00000000E+00  0.00000000E+00  0.00000000E+00
  0.00000000E+00  0.00000000E+00  0.00000000E+00
  0.00000000E+00  0.00000000E+00  0.00000000E+00
  0.00000000E+00  0.00000000E+00  0.00000000E+00
  0.00000000E+00  0.00000000E+00  0.00000000E+00
  0.00000000E+00  0.00000000E+00  0.00000000E+00
  0.00000000E+00  0.00000000E+00  0.00000000E+00
  0.00000000E+00  0.00000000E+00  0.00000000E+00
  0.00000000E+00  0.00000000E+00  0.00000000E+00
  0.00000000E+00  0.00000000E+00  0.00000000E+00
  0.00000000E+00  0.00000000E+00  0.00000000E+00
  0.00000000E+00  0.00000000E+00  0.00000000E+00
