B N C F O                               
   1.00000000000000     
    10.0487000000000002  -17.4050000000000011    0.0000000000000000
    10.0487000000000002   17.4050000000000011    0.0000000000000000
     0.0000000000000000    0.0000000000000000   35.0000000000000000
   B    N    C    F    O 
    64    64     3     5     2
Selective dynamics
Direct
  0.0833212536580916  0.0416586337296323  0.5015640031689443   T   T   T
  0.0833301272345039  0.1666650147206212  0.5015290544808124   T   T   T
  0.0833365395752992  0.2916614396352699  0.5014724179172347   T   T   T
  0.0833237634591697  0.4166498499832159  0.5015044872010179   T   T   T
  0.0833168920390861  0.5416476914087056  0.5016018876058155   T   T   T
  0.0833110582021845  0.6666436031123268  0.5016759319391539   T   T   T
  0.0833140182230139  0.7916477473407184  0.5016819212388555   T   T   T
  0.0833189071861113  0.9166543604371284  0.5016300267332312   T   T   T
  0.2083194294796371  0.0416568259425532  0.5015861956009573   T   T   T
  0.2083187542803557  0.1666628949955253  0.5015636489972977   T   T   T
  0.2083271470893351  0.2916700622590653  0.5015180861990061   T   T   T
  0.2083242182985288  0.4166439226757532  0.5014625472806600   T   T   T
  0.2083195177850783  0.5416447404963094  0.5015200216424134   T   T   T
  0.2083132413353468  0.6666438515557473  0.5016388712580309   T   T   T
  0.2083101687163662  0.7916442004920938  0.5017004353656844   T   T   T
  0.2083140933906478  0.9166496427365800  0.5016599022905694   T   T   T
  0.3333132735451017  0.0416510143063391  0.5016219960801109   T   T   T
  0.3333158527522855  0.1666602374383928  0.5015873866310798   T   T   T
  0.3333106275448614  0.2916677059229684  0.5015623728030363   T   T   T
  0.3333063375377776  0.4166338426449414  0.5015096142787314   T   T   T
  0.3333158328964814  0.5416380397607909  0.5014851194568237   T   T   T
  0.3333192863519869  0.6666471083446766  0.5015743556083549   T   T   T
  0.3333119020914310  0.7916430432958492  0.5016804750321668   T   T   T
  0.3333101066337107  0.9166437715950053  0.5016893313826216   T   T   T
  0.4583090315196046  0.0416421653885024  0.5016595095804348   T   T   T
  0.4583129195761018  0.1666500350166302  0.5016056063789378   T   T   T
  0.4583099743792189  0.2916572506710509  0.5015612610382831   T   T   T
  0.4583064550438962  0.4166497733980208  0.5015134837002861   T   T   T
  0.4583110254851661  0.5416390943231733  0.5014926960162285   T   T   T
  0.4583185179395954  0.6666436118018026  0.5015569814402880   T   T   T
  0.4583178033638688  0.7916456534918268  0.5016462553281968   T   T   T
  0.4583125901327634  0.9166423010275864  0.5016837982011566   T   T   T
  0.5833131313271522  0.0416422082769543  0.5016716975058557   T   T   T
  0.5833079543272746  0.1666411950561155  0.5016633377259154   T   T   T
  0.5833097783257557  0.2916473972625582  0.5016141012945639   T   T   T
  0.5833112581721522  0.4166490048987512  0.5015609433281227   T   T   T
  0.5833137721317527  0.5416455489638352  0.5015476030663280   T   T   T
  0.5833211002027667  0.6666476498604723  0.5015942981907529   T   T   T
  0.5833208556985952  0.7916470218823264  0.5016558839904519   T   T   T
  0.5833179745933421  0.9166452307064716  0.5016708397257830   T   T   T
  0.7083193201211486  0.0416463389029929  0.5016594194499362   T   T   T
  0.7083134029153157  0.1666423363012441  0.5016776350073755   T   T   T
  0.7083080435799189  0.2916388433356687  0.5016937051439427   T   T   T
  0.7083098978461706  0.4166417610526381  0.5016606339312162   T   T   T
  0.7083157982369954  0.5416468564480539  0.5016302423562209   T   T   T
  0.7083193793953342  0.6666471812522659  0.5016528809343086   T   T   T
  0.7083221946955902  0.7916494761979322  0.5016909419336315   T   T   T
  0.7083227883735503  0.9166500965094144  0.5016823689343965   T   T   T
  0.8333260870294623  0.0416539722877758  0.5016294092002056   T   T   T
  0.8333210588618272  0.1666487503344527  0.5016202780325969   T   T   T
  0.8333155700365396  0.2916431211731521  0.5016600759619294   T   T   T
  0.8333107493878131  0.4166392068763614  0.5016898071016769   T   T   T
  0.8333122119132454  0.5416413202474644  0.5016790373664293   T   T   T
  0.8333187365635553  0.6666481770315400  0.5016720315190284   T   T   T
  0.8333211844101172  0.7916505443960631  0.5016911862341757   T   T   T
  0.8333242097219582  0.9166532548389270  0.5016729481314357   T   T   T
  0.9583270710889451  0.0416591798911483  0.5015796668417565   T   T   T
  0.9583311832830077  0.1666586384143187  0.5015377272737211   T   T   T
  0.9583247002192934  0.2916512236970732  0.5015531855294597   T   T   T
  0.9583166053914454  0.4166454251563465  0.5016128737167378   T   T   T
  0.9583117883793832  0.5416417451631546  0.5016637762213279   T   T   T
  0.9583134138836726  0.6666448869108592  0.5016717380314404   T   T   T
  0.9583190860367381  0.7916511656023886  0.5016695519843495   T   T   T
  0.9583219811008874  0.9166550621992116  0.5016385207966678   T   T   T
  0.0416574358177044  0.0833254842487179  0.5015227820018282   T   T   T
  0.0416579520121232  0.2083241997184899  0.5014749950856228   T   T   T
  0.0416530500013579  0.3333191894786296  0.5014738287661373   T   T   T
  0.0416494044932563  0.4583152534859494  0.5015531578678250   T   T   T
  0.0416455307275143  0.5833121036080513  0.5016391534659306   T   T   T
  0.0416468790900666  0.7083132405624823  0.5016666813399837   T   T   T
  0.0416515873468342  0.8333187041849044  0.5016488853211882   T   T   T
  0.0416540060563477  0.9583214964150031  0.5015897354083449   T   T   T
  0.1666533560654813  0.0833221885845461  0.5015397842815048   T   T   T
  0.1666564663592212  0.2083253481245038  0.5015223274690399   T   T   T
  0.1666528585976152  0.3333249117094113  0.5014109238481552   T   T   T
  0.1666537211889150  0.4583183410192291  0.5014571074113761   T   T   T
  0.1666492558824118  0.5833140336449816  0.5015715269626995   T   T   T
  0.1666446148738956  0.7083115181922324  0.5016733909936448   T   T   T
  0.1666469678153746  0.8333146270442171  0.5016812810116349   T   T   T
  0.1666516020690736  0.9583196363167943  0.5016042667814773   T   T   T
  0.2916516718213984  0.0833218319257583  0.5015760214642881   T   T   T
  0.2916495666121008  0.2083238417921578  0.5015528841382704   T   T   T
  0.2916441507001792  0.3333128578042306  0.5014704614689975   T   T   T
  0.2916548393911711  0.4583178322489658  0.5014429314784010   T   T   T
  0.2916544162869101  0.5833181916258923  0.5014942342101847   T   T   T
  0.2916482008575727  0.7083133126129937  0.5016223459462736   T   T   T
  0.2916438134563322  0.8333101664076850  0.5016929821371150   T   T   T
  0.2916476920967881  0.9583156154402843  0.5016458352038029   T   T   T
  0.4166465881975583  0.0833140110493673  0.5016104804089565   T   T   T
  0.4166492218255513  0.2083197436707636  0.5015709197113409   T   T   T
  0.4166481638947559  0.3333200440868040  0.5015112558840613   T   T   T
  0.4166473298065938  0.4583155826754108  0.5014572062503504   T   T   T
  0.4166541097482508  0.5833175576100302  0.5014791362029030   T   T   T
  0.4166543046528375  0.7083166487536872  0.5015736775038917   T   T   T
  0.4166472699579700  0.8333108348928988  0.5016674125421332   T   T   T
  0.4166444350720866  0.9583089383612062  0.5016721173427143   T   T   T
  0.5416438173181675  0.0833076316758223  0.5016557206739662   T   T   T
  0.5416455963944742  0.2083123375882820  0.5016083055719704   T   T   T
  0.5416478660426023  0.3333165361425401  0.5015468028478054   T   T   T
  0.5416488012751302  0.4583160106225179  0.5015032029208442   T   T   T
  0.5416528763372028  0.5833163388279701  0.5015118840335546   T   T   T
  0.5416556975401932  0.7083167201377805  0.5015891415793590   T   T   T
  0.5416528806399725  0.8333141308592431  0.5016509487728058   T   T   T
  0.5416477502420420  0.9583100119148042  0.5016588978430008   T   T   T
  0.6666479463024757  0.0833097146976911  0.5016549860295427   T   T   T
  0.6666426355925665  0.2083059464706523  0.5016788798178453   T   T   T
  0.6666441627090620  0.3333089030582883  0.5016514461336499   T   T   T
  0.6666488502421544  0.4583139393711591  0.5015992960911362   T   T   T
  0.6666516943647736  0.5833153343277786  0.5015951059313721   T   T   T
  0.6666562028202918  0.7083172569738707  0.5016445154439921   T   T   T
  0.6666560628912990  0.8333173092333155  0.5016772322690812   T   T   T
  0.6666526856286552  0.9583140236792289  0.5016565883170685   T   T   T
  0.7916527002744758  0.0833152532617447  0.5016257711769541   T   T   T
  0.7916476024230619  0.2083107868341472  0.5016447147337857   T   T   T
  0.7916433210021694  0.3333061675794227  0.5016857431224722   T   T   T
  0.7916449182549457  0.4583076407805251  0.5016783093814041   T   T   T
  0.7916510792691795  0.5833143188825360  0.5016531085252751   T   T   T
  0.7916543362691044  0.7083165929095117  0.5016696606737980   T   T   T
  0.7916561126550121  0.8333185346878480  0.5016879167493400   T   T   T
  0.7916563538944388  0.9583190583413170  0.5016571087485104   T   T   T
  0.9166574998996850  0.0833224271058484  0.5015625160038297   T   T   T
  0.9166535732700254  0.2083171938737323  0.5015506988163310   T   T   T
  0.9166486281089732  0.3333123337415813  0.5015954255773991   T   T   T
  0.9166449965360215  0.4583092030516127  0.5016495278312476   T   T   T
  0.9166464786306250  0.5833105979552755  0.5016608775546345   T   T   T
  0.9166516618939511  0.7083165712244011  0.5016567368840370   T   T   T
  0.9166543760764085  0.8333194634317707  0.5016603761272123   T   T   T
  0.9166564409499927  0.9583220255609817  0.5016187804252041   T   T   T
  0.2793739884504305  0.2355560241429373  0.6750777091725197   T   T   T
  0.2651995736834181  0.2376373023634670  0.6321098219637804   T   T   T
  0.2567950582327185  0.3076439777523561  0.6197033395225233   T   T   T
  0.3457697765275398  0.2972251837121860  0.6858323376498134   T   T   T
  0.2829119505345972  0.1723116994346654  0.6844167444034781   T   T   T
  0.2220865612881440  0.2346407252448373  0.6954015047998681   T   T   T
  0.3252624047144081  0.2372493963763560  0.6137542893194023   T   T   T
  0.2008439924132546  0.1691503413326458  0.6236791057153610   T   T   T
  0.3189761232594108  0.3681889557094067  0.6147351041171589   T   T   T
  0.1895570881784252  0.2946733581688719  0.6172764423349690   T   T   T
 
  0.00000000E+00  0.00000000E+00  0.00000000E+00
  0.00000000E+00  0.00000000E+00  0.00000000E+00
  0.00000000E+00  0.00000000E+00  0.00000000E+00
  0.00000000E+00  0.00000000E+00  0.00000000E+00
  0.00000000E+00  0.00000000E+00  0.00000000E+00
  0.00000000E+00  0.00000000E+00  0.00000000E+00
  0.00000000E+00  0.00000000E+00  0.00000000E+00
  0.00000000E+00  0.00000000E+00  0.00000000E+00
  0.00000000E+00  0.00000000E+00  0.00000000E+00
  0.00000000E+00  0.00000000E+00  0.00000000E+00
  0.00000000E+00  0.00000000E+00  0.00000000E+00
  0.00000000E+00  0.00000000E+00  0.00000000E+00
  0.00000000E+00  0.00000000E+00  0.00000000E+00
  0.00000000E+00  0.00000000E+00  0.00000000E+00
  0.00000000E+00  0.00000000E+00  0.00000000E+00
  0.00000000E+00  0.00000000E+00  0.00000000E+00
  0.00000000E+00  0.00000000E+00  0.00000000E+00
  0.00000000E+00  0.00000000E+00  0.00000000E+00
  0.00000000E+00  0.00000000E+00  0.00000000E+00
  0.00000000E+00  0.00000000E+00  0.00000000E+00
  0.00000000E+00  0.00000000E+00  0.00000000E+00
  0.00000000E+00  0.00000000E+00  0.00000000E+00
  0.00000000E+00  0.00000000E+00  0.00000000E+00
  0.00000000E+00  0.00000000E+00  0.00000000E+00
  0.00000000E+00  0.00000000E+00  0.00000000E+00
  0.00000000E+00  0.00000000E+00  0.00000000E+00
  0.00000000E+00  0.00000000E+00  0.00000000E+00
  0.00000000E+00  0.00000000E+00  0.00000000E+00
  0.00000000E+00  0.00000000E+00  0.00000000E+00
  0.00000000E+00  0.00000000E+00  0.00000000E+00
  0.00000000E+00  0.00000000E+00  0.00000000E+00
  0.00000000E+00  0.00000000E+00  0.00000000E+00
  0.00000000E+00  0.00000000E+00  0.00000000E+00
  0.00000000E+00  0.00000000E+00  0.00000000E+00
  0.00000000E+00  0.00000000E+00  0.00000000E+00
  0.00000000E+00  0.00000000E+00  0.00000000E+00
  0.00000000E+00  0.00000000E+00  0.00000000E+00
  0.00000000E+00  0.00000000E+00  0.00000000E+00
  0.00000000E+00  0.00000000E+00  0.00000000E+00
  0.00000000E+00  0.00000000E+00  0.00000000E+00
  0.00000000E+00  0.00000000E+00  0.00000000E+00
  0.00000000E+00  0.00000000E+00  0.00000000E+00
  0.00000000E+00  0.00000000E+00  0.00000000E+00
  0.00000000E+00  0.00000000E+00  0.00000000E+00
  0.00000000E+00  0.00000000E+00  0.00000000E+00
  0.00000000E+00  0.00000000E+00  0.00000000E+00
  0.00000000E+00  0.00000000E+00  0.00000000E+00
  0.00000000E+00  0.00000000E+00  0.00000000E+00
  0.00000000E+00  0.00000000E+00  0.00000000E+00
  0.00000000E+00  0.00000000E+00  0.00000000E+00
  0.00000000E+00  0.00000000E+00  0.00000000E+00
  0.00000000E+00  0.00000000E+00  0.00000000E+00
  0.00000000E+00  0.00000000E+00  0.00000000E+00
  0.00000000E+00  0.00000000E+00  0.00000000E+00
  0.00000000E+00  0.00000000E+00  0.00000000E+00
  0.00000000E+00  0.00000000E+00  0.00000000E+00
  0.00000000E+00  0.00000000E+00  0.00000000E+00
  0.00000000E+00  0.00000000E+00  0.00000000E+00
  0.00000000E+00  0.00000000E+00  0.00000000E+00
  0.00000000E+00  0.00000000E+00  0.00000000E+00
  0.00000000E+00  0.00000000E+00  0.00000000E+00
  0.00000000E+00  0.00000000E+00  0.00000000E+00
  0.00000000E+00  0.00000000E+00  0.00000000E+00
  0.00000000E+00  0.00000000E+00  0.00000000E+00
  0.00000000E+00  0.00000000E+00  0.00000000E+00
  0.00000000E+00  0.00000000E+00  0.00000000E+00
  0.00000000E+00  0.00000000E+00  0.00000000E+00
  0.00000000E+00  0.00000000E+00  0.00000000E+00
  0.00000000E+00  0.00000000E+00  0.00000000E+00
  0.00000000E+00  0.00000000E+00  0.00000000E+00
  0.00000000E+00  0.00000000E+00  0.00000000E+00
  0.00000000E+00  0.00000000E+00  0.00000000E+00
  0.00000000E+00  0.00000000E+00  0.00000000E+00
  0.00000000E+00  0.00000000E+00  0.00000000E+00
  0.00000000E+00  0.00000000E+00  0.00000000E+00
  0.00000000E+00  0.00000000E+00  0.00000000E+00
  0.00000000E+00  0.00000000E+00  0.00000000E+00
  0.00000000E+00  0.00000000E+00  0.00000000E+00
  0.00000000E+00  0.00000000E+00  0.00000000E+00
  0.00000000E+00  0.00000000E+00  0.00000000E+00
  0.00000000E+00  0.00000000E+00  0.00000000E+00
  0.00000000E+00  0.00000000E+00  0.00000000E+00
  0.00000000E+00  0.00000000E+00  0.00000000E+00
  0.00000000E+00  0.00000000E+00  0.00000000E+00
  0.00000000E+00  0.00000000E+00  0.00000000E+00
  0.00000000E+00  0.00000000E+00  0.00000000E+00
  0.00000000E+00  0.00000000E+00  0.00000000E+00
  0.00000000E+00  0.00000000E+00  0.00000000E+00
  0.00000000E+00  0.00000000E+00  0.00000000E+00
  0.00000000E+00  0.00000000E+00  0.00000000E+00
  0.00000000E+00  0.00000000E+00  0.00000000E+00
  0.00000000E+00  0.00000000E+00  0.00000000E+00
  0.00000000E+00  0.00000000E+00  0.00000000E+00
  0.00000000E+00  0.00000000E+00  0.00000000E+00
  0.00000000E+00  0.00000000E+00  0.00000000E+00
  0.00000000E+00  0.00000000E+00  0.00000000E+00
  0.00000000E+00  0.00000000E+00  0.00000000E+00
  0.00000000E+00  0.00000000E+00  0.00000000E+00
  0.00000000E+00  0.00000000E+00  0.00000000E+00
  0.00000000E+00  0.00000000E+00  0.00000000E+00
  0.00000000E+00  0.00000000E+00  0.00000000E+00
  0.00000000E+00  0.00000000E+00  0.00000000E+00
  0.00000000E+00  0.00000000E+00  0.00000000E+00
  0.00000000E+00  0.00000000E+00  0.00000000E+00
  0.00000000E+00  0.00000000E+00  0.00000000E+00
  0.00000000E+00  0.00000000E+00  0.00000000E+00
  0.00000000E+00  0.00000000E+00  0.00000000E+00
  0.00000000E+00  0.00000000E+00  0.00000000E+00
  0.00000000E+00  0.00000000E+00  0.00000000E+00
  0.00000000E+00  0.00000000E+00  0.00000000E+00
  0.00000000E+00  0.00000000E+00  0.00000000E+00
  0.00000000E+00  0.00000000E+00  0.00000000E+00
  0.00000000E+00  0.00000000E+00  0.00000000E+00
  0.00000000E+00  0.00000000E+00  0.00000000E+00
  0.00000000E+00  0.00000000E+00  0.00000000E+00
  0.00000000E+00  0.00000000E+00  0.00000000E+00
  0.00000000E+00  0.00000000E+00  0.00000000E+00
  0.00000000E+00  0.00000000E+00  0.00000000E+00
  0.00000000E+00  0.00000000E+00  0.00000000E+00
  0.00000000E+00  0.00000000E+00  0.00000000E+00
  0.00000000E+00  0.00000000E+00  0.00000000E+00
  0.00000000E+00  0.00000000E+00  0.00000000E+00
  0.00000000E+00  0.00000000E+00  0.00000000E+00
  0.00000000E+00  0.00000000E+00  0.00000000E+00
  0.00000000E+00  0.00000000E+00  0.00000000E+00
  0.00000000E+00  0.00000000E+00  0.00000000E+00
  0.00000000E+00  0.00000000E+00  0.00000000E+00
  0.00000000E+00  0.00000000E+00  0.00000000E+00
  0.00000000E+00  0.00000000E+00  0.00000000E+00
  0.00000000E+00  0.00000000E+00  0.00000000E+00
  0.00000000E+00  0.00000000E+00  0.00000000E+00
  0.00000000E+00  0.00000000E+00  0.00000000E+00
  0.00000000E+00  0.00000000E+00  0.00000000E+00
  0.00000000E+00  0.00000000E+00  0.00000000E+00
  0.00000000E+00  0.00000000E+00  0.00000000E+00
  0.00000000E+00  0.00000000E+00  0.00000000E+00
  0.00000000E+00  0.00000000E+00  0.00000000E+00
  0.00000000E+00  0.00000000E+00  0.00000000E+00
