B N C F O                               
   1.00000000000000     
    10.0487000000000002  -17.4050000000000011    0.0000000000000000
    10.0487000000000002   17.4050000000000011    0.0000000000000000
     0.0000000000000000    0.0000000000000000   35.0000000000000000
   B    N    C    F    O 
    64    64     3     5     2
Selective dynamics
Direct
  0.0833161713560884  0.0416511210681776  0.5015916545360710   T   T   T
  0.0833084422126760  0.1666491270038932  0.5015793709217107   T   T   T
  0.0833121177737155  0.2916501798019340  0.5015194699441849   T   T   T
  0.0833164585449353  0.4166487337659248  0.5015246593619764   T   T   T
  0.0833185107676115  0.5416508413361925  0.5015919602981356   T   T   T
  0.0833130120942585  0.6666462452043262  0.5016612593827503   T   T   T
  0.0833134360808998  0.7916471697704921  0.5016694635337089   T   T   T
  0.0833166844275013  0.9166503319419590  0.5016207672193786   T   T   T
  0.2083199395830633  0.0416506015255322  0.5016058558209551   T   T   T
  0.2083138405417770  0.1666461998987785  0.5015904854444102   T   T   T
  0.2083084027020732  0.2916591518509009  0.5015370778928556   T   T   T
  0.2083155789695326  0.4166513700490810  0.5014985185914114   T   T   T
  0.2083155529992311  0.5416474474680797  0.5015302159670227   T   T   T
  0.2083153922642609  0.6666482680559369  0.5016161309046865   T   T   T
  0.2083121994128945  0.7916459473670088  0.5016750642032832   T   T   T
  0.2083141153387231  0.9166475720930904  0.5016441571122314   T   T   T
  0.3333170011626976  0.0416474290727464  0.5016226366917280   T   T   T
  0.3333230567969565  0.1666484314371388  0.5016205059108501   T   T   T
  0.3333257684606750  0.2916606544704976  0.5015833048075891   T   T   T
  0.3333157507394091  0.4166550247625764  0.5015378478713686   T   T   T
  0.3333158427912721  0.5416483342197864  0.5015079294512219   T   T   T
  0.3333150482735547  0.6666469896755203  0.5015736149729264   T   T   T
  0.3333125942328721  0.7916457798589107  0.5016553806783293   T   T   T
  0.3333124369637659  0.9166452288875746  0.5016673909184277   T   T   T
  0.4583128431880894  0.0416444076735658  0.5016486228720396   T   T   T
  0.4583179684584167  0.1666474205448836  0.5016143702276779   T   T   T
  0.4583234470618365  0.2916545213520365  0.5015953403388451   T   T   T
  0.4583161016437529  0.4166535995673044  0.5015516038870942   T   T   T
  0.4583137625294711  0.5416482424929612  0.5015217471135358   T   T   T
  0.4583147053959991  0.6666459651370289  0.5015639931281513   T   T   T
  0.4583137551134442  0.7916454927815266  0.5016321911486656   T   T   T
  0.4583124626974779  0.9166442675382172  0.5016730031699410   T   T   T
  0.5833128210484304  0.0416438804817858  0.5016723846302824   T   T   T
  0.5833129299683861  0.1666442473808871  0.5016465545624129   T   T   T
  0.5833164564161706  0.2916486620925127  0.5016142353491091   T   T   T
  0.5833171360601597  0.4166511039763421  0.5015802315998954   T   T   T
  0.5833140019552658  0.5416474297727092  0.5015604471098101   T   T   T
  0.5833165508354554  0.6666481822618024  0.5015865966496662   T   T   T
  0.5833146166945582  0.7916457133365782  0.5016356044348456   T   T   T
  0.5833142297901475  0.9166449691232401  0.5016688605254629   T   T   T
  0.7083149231830959  0.0416455443641865  0.5016532492101362   T   T   T
  0.7083134302054148  0.1666452077098910  0.5016579431071477   T   T   T
  0.7083132145007482  0.2916446370534658  0.5016593236074343   T   T   T
  0.7083141227128635  0.4166460585524447  0.5016378418518670   T   T   T
  0.7083164747109905  0.5416483488002584  0.5016184792415004   T   T   T
  0.7083151418715516  0.6666460392156779  0.5016292245008458   T   T   T
  0.7083160468088820  0.7916464776620558  0.5016568792604730   T   T   T
  0.7083157784906575  0.9166460683163038  0.5016628423203215   T   T   T
  0.8333177195515020  0.0416492130453179  0.5016132584039568   T   T   T
  0.8333165053908047  0.1666499770122485  0.5016033985104258   T   T   T
  0.8333149035173690  0.2916475309581017  0.5016330639770459   T   T   T
  0.8333139963298919  0.4166454193291287  0.5016621160455585   T   T   T
  0.8333137136856195  0.5416447531304698  0.5016672460262512   T   T   T
  0.8333150474888882  0.6666463604030213  0.5016672708790253   T   T   T
  0.8333157899726729  0.7916470179917212  0.5016652771919965   T   T   T
  0.8333162502361162  0.9166477934259802  0.5016444729733536   T   T   T
  0.9583181930443985  0.0416515294883979  0.5015912685881077   T   T   T
  0.9583135639464544  0.1666480955379512  0.5015627872249198   T   T   T
  0.9583155338079337  0.2916493986486870  0.5015584097066608   T   T   T
  0.9583184766956379  0.4166508813161656  0.5016032246177815   T   T   T
  0.9583139050416420  0.5416455072810535  0.5016552114538158   T   T   T
  0.9583136116144928  0.6666457779599142  0.5016802761568613   T   T   T
  0.9583155938115553  0.7916481892440785  0.5016631662266278   T   T   T
  0.9583166644739691  0.9166493542057239  0.5016225284696603   T   T   T
  0.0416518344057337  0.0833192941366079  0.5015718463942918   T   T   T
  0.0416476176316536  0.2083171608133796  0.5015343552415743   T   T   T
  0.0416467116532004  0.3333166261331471  0.5015062289148489   T   T   T
  0.0416508572250720  0.4583178914949215  0.5015546582500079   T   T   T
  0.0416477769967329  0.5833140343078682  0.5016276835256690   T   T   T
  0.0416470523544064  0.7083134845791008  0.5016682701193957   T   T   T
  0.0416490086805865  0.8333159970327131  0.5016408548912779   T   T   T
  0.0416507289378885  0.9583179602576593  0.5015919408385940   T   T   T
  0.1666523635682040  0.0833189828891889  0.5015807621245330   T   T   T
  0.1666522350478914  0.2083210198204881  0.5015766719458483   T   T   T
  0.1666453793927758  0.3333190415464813  0.5014745992255385   T   T   T
  0.1666488228557341  0.4583170807904935  0.5014902270218755   T   T   T
  0.1666502747337972  0.5833167157443455  0.5015627361540780   T   T   T
  0.1666467976011177  0.7083133692293870  0.5016484067856908   T   T   T
  0.1666468452720906  0.8333138010843228  0.5016599214441939   T   T   T
  0.1666507930990733  0.9583177218134438  0.5016046885396861   T   T   T
  0.2916527904408213  0.0833191349973035  0.5016025955752710   T   T   T
  0.2916504788216017  0.2083217846843368  0.5016145227892537   T   T   T
  0.2916421445468558  0.3333110843570211  0.5015553930504666   T   T   T
  0.2916484466798721  0.4583157252245016  0.5014803335210587   T   T   T
  0.2916490841154982  0.5833154581057869  0.5015111234115963   T   T   T
  0.2916478835205183  0.7083140833506221  0.5016039202931353   T   T   T
  0.2916458902231582  0.8333123764249706  0.5016687007111855   T   T   T
  0.2916479678609960  0.9583145065102272  0.5016326393035371   T   T   T
  0.4166492293188213  0.0833143534919998  0.5016090738013759   T   T   T
  0.4166523403149114  0.2083187948872549  0.5016034417749466   T   T   T
  0.4166513844518889  0.3333183601298941  0.5015625601904290   T   T   T
  0.4166455245335499  0.4583148272716571  0.5015028114974811   T   T   T
  0.4166488408039442  0.5833159881798480  0.5015056548177697   T   T   T
  0.4166483215125680  0.7083140530257594  0.5015758288648726   T   T   T
  0.4166464854625431  0.8333120206858027  0.5016502822246949   T   T   T
  0.4166462016754906  0.9583114311933159  0.5016578169673096   T   T   T
  0.5416467426002995  0.0833112882197469  0.5016487021327549   T   T   T
  0.5416496514573836  0.2083144303394704  0.5016064502870918   T   T   T
  0.5416531289236062  0.3333180811077696  0.5015771764513062   T   T   T
  0.5416490640927165  0.4583162241993790  0.5015379093081904   T   T   T
  0.5416486208918982  0.5833156767196002  0.5015306287526400   T   T   T
  0.5416491797971403  0.7083144619635391  0.5015826311084055   T   T   T
  0.5416477907501829  0.8333125864319513  0.5016367308946883   T   T   T
  0.5416467415597879  0.9583112112302743  0.5016659738621811   T   T   T
  0.6666472893017996  0.0833120445072240  0.5016572027220647   T   T   T
  0.6666469670645725  0.2083119210826681  0.5016511260310850   T   T   T
  0.6666491234118013  0.3333135132188616  0.5016284530193786   T   T   T
  0.6666507111430917  0.4583158850961198  0.5015951141104580   T   T   T
  0.6666488851750643  0.5833143666378362  0.5015862181999466   T   T   T
  0.6666498406356851  0.7083143953265036  0.5016163739306450   T   T   T
  0.6666486797316011  0.8333130752512901  0.5016506465586872   T   T   T
  0.6666482526603161  0.9583124756923382  0.5016585294026683   T   T   T
  0.7916491744413179  0.0833151069553253  0.5016047071699958   T   T   T
  0.7916476655791129  0.2083144382043542  0.5016223121106407   T   T   T
  0.7916472115139399  0.3333128718490102  0.5016522924631133   T   T   T
  0.7916481387287888  0.4583125863026893  0.5016531767579195   T   T   T
  0.7916494494199142  0.5833139616803535  0.5016450802727661   T   T   T
  0.7916489904240365  0.7083138086434673  0.5016519901547696   T   T   T
  0.7916494826467471  0.8333142850238175  0.5016569146297769   T   T   T
  0.7916497172229384  0.9583149488796678  0.5016347412565452   T   T   T
  0.9166501840447054  0.0833161427230067  0.5015716727519575   T   T   T
  0.9166479496284055  0.2083159963203585  0.5015535139400811   T   T   T
  0.9166485868382992  0.3333166224451674  0.5015845210711944   T   T   T
  0.9166480243032993  0.4583135605945969  0.5016350927752100   T   T   T
  0.9166474540872613  0.5833124711424063  0.5016655380207453   T   T   T
  0.9166484614464991  0.7083141273576175  0.5016681558137819   T   T   T
  0.9166493921196022  0.8333154550188766  0.5016442733575630   T   T   T
  0.9166505251391825  0.9583167039640657  0.5016035747985725   T   T   T
  0.2794199418743446  0.2353480077515897  0.6753385456369827   T   T   T
  0.2653001413085576  0.2371938696132290  0.6323179963443550   T   T   T
  0.2569874006408028  0.3065989887329081  0.6197462528517761   T   T   T
  0.3457501401890042  0.2973316622203086  0.6857384458440023   T   T   T
  0.2830064376901049  0.1723226283362749  0.6846527786752006   T   T   T
  0.2220452351846163  0.2345892660368563  0.6954062006032160   T   T   T
  0.3253942786069146  0.2377112649924982  0.6138298604337677   T   T   T
  0.2006843984588329  0.1696046138219458  0.6236865499899125   T   T   T
  0.3180091883002731  0.3680885677921779  0.6140605898734819   T   T   T
  0.1903894425898969  0.2955582930412959  0.6169599205380933   T   T   T
 
  0.00000000E+00  0.00000000E+00  0.00000000E+00
  0.00000000E+00  0.00000000E+00  0.00000000E+00
  0.00000000E+00  0.00000000E+00  0.00000000E+00
  0.00000000E+00  0.00000000E+00  0.00000000E+00
  0.00000000E+00  0.00000000E+00  0.00000000E+00
  0.00000000E+00  0.00000000E+00  0.00000000E+00
  0.00000000E+00  0.00000000E+00  0.00000000E+00
  0.00000000E+00  0.00000000E+00  0.00000000E+00
  0.00000000E+00  0.00000000E+00  0.00000000E+00
  0.00000000E+00  0.00000000E+00  0.00000000E+00
  0.00000000E+00  0.00000000E+00  0.00000000E+00
  0.00000000E+00  0.00000000E+00  0.00000000E+00
  0.00000000E+00  0.00000000E+00  0.00000000E+00
  0.00000000E+00  0.00000000E+00  0.00000000E+00
  0.00000000E+00  0.00000000E+00  0.00000000E+00
  0.00000000E+00  0.00000000E+00  0.00000000E+00
  0.00000000E+00  0.00000000E+00  0.00000000E+00
  0.00000000E+00  0.00000000E+00  0.00000000E+00
  0.00000000E+00  0.00000000E+00  0.00000000E+00
  0.00000000E+00  0.00000000E+00  0.00000000E+00
  0.00000000E+00  0.00000000E+00  0.00000000E+00
  0.00000000E+00  0.00000000E+00  0.00000000E+00
  0.00000000E+00  0.00000000E+00  0.00000000E+00
  0.00000000E+00  0.00000000E+00  0.00000000E+00
  0.00000000E+00  0.00000000E+00  0.00000000E+00
  0.00000000E+00  0.00000000E+00  0.00000000E+00
  0.00000000E+00  0.00000000E+00  0.00000000E+00
  0.00000000E+00  0.00000000E+00  0.00000000E+00
  0.00000000E+00  0.00000000E+00  0.00000000E+00
  0.00000000E+00  0.00000000E+00  0.00000000E+00
  0.00000000E+00  0.00000000E+00  0.00000000E+00
  0.00000000E+00  0.00000000E+00  0.00000000E+00
  0.00000000E+00  0.00000000E+00  0.00000000E+00
  0.00000000E+00  0.00000000E+00  0.00000000E+00
  0.00000000E+00  0.00000000E+00  0.00000000E+00
  0.00000000E+00  0.00000000E+00  0.00000000E+00
  0.00000000E+00  0.00000000E+00  0.00000000E+00
  0.00000000E+00  0.00000000E+00  0.00000000E+00
  0.00000000E+00  0.00000000E+00  0.00000000E+00
  0.00000000E+00  0.00000000E+00  0.00000000E+00
  0.00000000E+00  0.00000000E+00  0.00000000E+00
  0.00000000E+00  0.00000000E+00  0.00000000E+00
  0.00000000E+00  0.00000000E+00  0.00000000E+00
  0.00000000E+00  0.00000000E+00  0.00000000E+00
  0.00000000E+00  0.00000000E+00  0.00000000E+00
  0.00000000E+00  0.00000000E+00  0.00000000E+00
  0.00000000E+00  0.00000000E+00  0.00000000E+00
  0.00000000E+00  0.00000000E+00  0.00000000E+00
  0.00000000E+00  0.00000000E+00  0.00000000E+00
  0.00000000E+00  0.00000000E+00  0.00000000E+00
  0.00000000E+00  0.00000000E+00  0.00000000E+00
  0.00000000E+00  0.00000000E+00  0.00000000E+00
  0.00000000E+00  0.00000000E+00  0.00000000E+00
  0.00000000E+00  0.00000000E+00  0.00000000E+00
  0.00000000E+00  0.00000000E+00  0.00000000E+00
  0.00000000E+00  0.00000000E+00  0.00000000E+00
  0.00000000E+00  0.00000000E+00  0.00000000E+00
  0.00000000E+00  0.00000000E+00  0.00000000E+00
  0.00000000E+00  0.00000000E+00  0.00000000E+00
  0.00000000E+00  0.00000000E+00  0.00000000E+00
  0.00000000E+00  0.00000000E+00  0.00000000E+00
  0.00000000E+00  0.00000000E+00  0.00000000E+00
  0.00000000E+00  0.00000000E+00  0.00000000E+00
  0.00000000E+00  0.00000000E+00  0.00000000E+00
  0.00000000E+00  0.00000000E+00  0.00000000E+00
  0.00000000E+00  0.00000000E+00  0.00000000E+00
  0.00000000E+00  0.00000000E+00  0.00000000E+00
  0.00000000E+00  0.00000000E+00  0.00000000E+00
  0.00000000E+00  0.00000000E+00  0.00000000E+00
  0.00000000E+00  0.00000000E+00  0.00000000E+00
  0.00000000E+00  0.00000000E+00  0.00000000E+00
  0.00000000E+00  0.00000000E+00  0.00000000E+00
  0.00000000E+00  0.00000000E+00  0.00000000E+00
  0.00000000E+00  0.00000000E+00  0.00000000E+00
  0.00000000E+00  0.00000000E+00  0.00000000E+00
  0.00000000E+00  0.00000000E+00  0.00000000E+00
  0.00000000E+00  0.00000000E+00  0.00000000E+00
  0.00000000E+00  0.00000000E+00  0.00000000E+00
  0.00000000E+00  0.00000000E+00  0.00000000E+00
  0.00000000E+00  0.00000000E+00  0.00000000E+00
  0.00000000E+00  0.00000000E+00  0.00000000E+00
  0.00000000E+00  0.00000000E+00  0.00000000E+00
  0.00000000E+00  0.00000000E+00  0.00000000E+00
  0.00000000E+00  0.00000000E+00  0.00000000E+00
  0.00000000E+00  0.00000000E+00  0.00000000E+00
  0.00000000E+00  0.00000000E+00  0.00000000E+00
  0.00000000E+00  0.00000000E+00  0.00000000E+00
  0.00000000E+00  0.00000000E+00  0.00000000E+00
  0.00000000E+00  0.00000000E+00  0.00000000E+00
  0.00000000E+00  0.00000000E+00  0.00000000E+00
  0.00000000E+00  0.00000000E+00  0.00000000E+00
  0.00000000E+00  0.00000000E+00  0.00000000E+00
  0.00000000E+00  0.00000000E+00  0.00000000E+00
  0.00000000E+00  0.00000000E+00  0.00000000E+00
  0.00000000E+00  0.00000000E+00  0.00000000E+00
  0.00000000E+00  0.00000000E+00  0.00000000E+00
  0.00000000E+00  0.00000000E+00  0.00000000E+00
  0.00000000E+00  0.00000000E+00  0.00000000E+00
  0.00000000E+00  0.00000000E+00  0.00000000E+00
  0.00000000E+00  0.00000000E+00  0.00000000E+00
  0.00000000E+00  0.00000000E+00  0.00000000E+00
  0.00000000E+00  0.00000000E+00  0.00000000E+00
  0.00000000E+00  0.00000000E+00  0.00000000E+00
  0.00000000E+00  0.00000000E+00  0.00000000E+00
  0.00000000E+00  0.00000000E+00  0.00000000E+00
  0.00000000E+00  0.00000000E+00  0.00000000E+00
  0.00000000E+00  0.00000000E+00  0.00000000E+00
  0.00000000E+00  0.00000000E+00  0.00000000E+00
  0.00000000E+00  0.00000000E+00  0.00000000E+00
  0.00000000E+00  0.00000000E+00  0.00000000E+00
  0.00000000E+00  0.00000000E+00  0.00000000E+00
  0.00000000E+00  0.00000000E+00  0.00000000E+00
  0.00000000E+00  0.00000000E+00  0.00000000E+00
  0.00000000E+00  0.00000000E+00  0.00000000E+00
  0.00000000E+00  0.00000000E+00  0.00000000E+00
  0.00000000E+00  0.00000000E+00  0.00000000E+00
  0.00000000E+00  0.00000000E+00  0.00000000E+00
  0.00000000E+00  0.00000000E+00  0.00000000E+00
  0.00000000E+00  0.00000000E+00  0.00000000E+00
  0.00000000E+00  0.00000000E+00  0.00000000E+00
  0.00000000E+00  0.00000000E+00  0.00000000E+00
  0.00000000E+00  0.00000000E+00  0.00000000E+00
  0.00000000E+00  0.00000000E+00  0.00000000E+00
  0.00000000E+00  0.00000000E+00  0.00000000E+00
  0.00000000E+00  0.00000000E+00  0.00000000E+00
  0.00000000E+00  0.00000000E+00  0.00000000E+00
  0.00000000E+00  0.00000000E+00  0.00000000E+00
  0.00000000E+00  0.00000000E+00  0.00000000E+00
  0.00000000E+00  0.00000000E+00  0.00000000E+00
  0.00000000E+00  0.00000000E+00  0.00000000E+00
  0.00000000E+00  0.00000000E+00  0.00000000E+00
  0.00000000E+00  0.00000000E+00  0.00000000E+00
  0.00000000E+00  0.00000000E+00  0.00000000E+00
  0.00000000E+00  0.00000000E+00  0.00000000E+00
  0.00000000E+00  0.00000000E+00  0.00000000E+00
  0.00000000E+00  0.00000000E+00  0.00000000E+00
  0.00000000E+00  0.00000000E+00  0.00000000E+00
  0.00000000E+00  0.00000000E+00  0.00000000E+00
