C F O                                   
   1.00000000000000     
    23.1653536600000010    0.0000000000000000    0.0000000000000000
     0.0000000000000000   24.2249790099999984    0.0000000000000000
     0.0000000000000000    0.0000000000000000   23.1945346000000008
   C    F    O 
     3     5     2
Selective dynamics
Direct
  0.5163842049576719  0.5410181385141207  0.5113180888408572   T   T   T
  0.4859933033386151  0.4888031416950707  0.4895781033846099   T   T   T
  0.5193540800431452  0.4341553410718044  0.5024008222584148   T   T   T
  0.5682849440843147  0.5470160885195682  0.4861303448325689   T   T   T
  0.4848909988195041  0.5864154135454246  0.4993676604456217   T   T   T
  0.5242812715147465  0.5390881783212370  0.5687022281314198   T   T   T
  0.4322719312736462  0.4889123009774841  0.5143760632684730   T   T   T
  0.4775400843178528  0.4965042558429682  0.4316244626119132   T   T   T
  0.5536263175655598  0.4198781322873942  0.4638431605425116   T   T   T
  0.5078780751849420  0.4129970621039301  0.5499630520296037   T   T   T
 
  0.00000000E+00  0.00000000E+00  0.00000000E+00
  0.00000000E+00  0.00000000E+00  0.00000000E+00
  0.00000000E+00  0.00000000E+00  0.00000000E+00
  0.00000000E+00  0.00000000E+00  0.00000000E+00
  0.00000000E+00  0.00000000E+00  0.00000000E+00
  0.00000000E+00  0.00000000E+00  0.00000000E+00
  0.00000000E+00  0.00000000E+00  0.00000000E+00
  0.00000000E+00  0.00000000E+00  0.00000000E+00
  0.00000000E+00  0.00000000E+00  0.00000000E+00
  0.00000000E+00  0.00000000E+00  0.00000000E+00
