B N C F O                               
   1.00000000000000     
    10.0487000000000002  -17.4050000000000011    0.0000000000000000
    10.0487000000000002   17.4050000000000011    0.0000000000000000
     0.0000000000000000    0.0000000000000000   35.0000000000000000
   B    N    C    F    O 
    64    64     3     5     2
Selective dynamics
Direct
  0.0833175651672136  0.0416543427861313  0.5015790286633077   T   T   T
  0.0833165749970135  0.1666559375898942  0.5015509166135956   T   T   T
  0.0833227282573290  0.2916566932769271  0.5014902637602034   T   T   T
  0.0833202358427059  0.4166510952692661  0.5015136997182665   T   T   T
  0.0833201525546130  0.5416516978489625  0.5015961098067194   T   T   T
  0.0833141176629937  0.6666468004272019  0.5016690194903219   T   T   T
  0.0833149160039568  0.7916483927458913  0.5016755041204846   T   T   T
  0.0833187863182516  0.9166530262316996  0.5016218129543617   T   T   T
  0.2083233790838150  0.0416555347585685  0.5015953334091918   T   T   T
  0.2083158253809927  0.1666530434460682  0.5015759117950438   T   T   T
  0.2083186179783212  0.2916665194811472  0.5015170158692683   T   T   T
  0.2083204335335722  0.4166508619837117  0.5014730453203811   T   T   T
  0.2083190839989584  0.5416486242382277  0.5015245877917422   T   T   T
  0.2083166625113861  0.6666481691472157  0.5016273718809785   T   T   T
  0.2083134008353298  0.7916466527875912  0.5016920253037327   T   T   T
  0.2083152713719940  0.9166496828348727  0.5016514396956566   T   T   T
  0.3333174329001523  0.0416497727781930  0.5016211832881083   T   T   T
  0.3333231158528633  0.1666554103087918  0.5016037131653732   T   T   T
  0.3333201549592317  0.2916646729546315  0.5015629469618617   T   T   T
  0.3333143830095011  0.4166491319859134  0.5015109172090604   T   T   T
  0.3333180728308065  0.5416468771549603  0.5014930003341007   T   T   T
  0.3333187787235516  0.6666483035351334  0.5015758506793730   T   T   T
  0.3333143008568769  0.7916463787970756  0.5016691224571233   T   T   T
  0.3333128165654671  0.9166453673428379  0.5016803458708523   T   T   T
  0.4583131560943556  0.0416450494842664  0.5016531136409625   T   T   T
  0.4583180071785122  0.1666493848685207  0.5016086232180115   T   T   T
  0.4583166851722140  0.2916542650083187  0.5015766802527040   T   T   T
  0.4583132615306127  0.4166534567624538  0.5015280194970586   T   T   T
  0.4583160733981657  0.5416483434886032  0.5015052656870509   T   T   T
  0.4583186169687110  0.6666473993426507  0.5015608149158979   T   T   T
  0.4583165999807548  0.7916470473049557  0.5016373848027911   T   T   T
  0.4583132169690245  0.9166450400915451  0.5016797252183167   T   T   T
  0.5833132510329477  0.0416440479514009  0.5016712364014211   T   T   T
  0.5833130189852866  0.1666441433201413  0.5016547504162432   T   T   T
  0.5833143550848234  0.2916488554511503  0.5016144475610034   T   T   T
  0.5833123775625211  0.4166485333128165  0.5015714504792328   T   T   T
  0.5833154031664876  0.5416489588702191  0.5015541871212719   T   T   T
  0.5833207050346090  0.6666515338690218  0.5015908439663264   T   T   T
  0.5833189920921953  0.7916488145373037  0.5016451075372714   T   T   T
  0.5833161482691196  0.9166463947798249  0.5016701964430510   T   T   T
  0.7083171415138878  0.0416468580389306  0.5016569442617538   T   T   T
  0.7083145232847556  0.1666443132975743  0.5016698281132079   T   T   T
  0.7083117958318397  0.2916424565515001  0.5016794296705811   T   T   T
  0.7083122938112396  0.4166442948352582  0.5016488235679546   T   T   T
  0.7083155003752566  0.5416468720420227  0.5016209781403589   T   T   T
  0.7083184869880057  0.6666482549523067  0.5016403102165228   T   T   T
  0.7083210111024201  0.7916505822958229  0.5016769647220798   T   T   T
  0.7083191501431330  0.9166487978774995  0.5016743891034352   T   T   T
  0.8333200756096986  0.0416511776487596  0.5016193134305027   T   T   T
  0.8333192505167588  0.1666502012419002  0.5016108610832859   T   T   T
  0.8333153827375668  0.2916463294823330  0.5016488562504335   T   T   T
  0.8333122242976927  0.4166429260494198  0.5016795458469190   T   T   T
  0.8333128687059741  0.5416433060824986  0.5016726044014703   T   T   T
  0.8333158274939549  0.6666462593624161  0.5016696093037325   T   T   T
  0.8333192142456696  0.7916497676955743  0.5016806392205879   T   T   T
  0.8333207764935295  0.9166515573426750  0.5016601703327623   T   T   T
  0.9583215732578125  0.0416558099031548  0.5015854388117305   T   T   T
  0.9583208550557600  0.1666536216481234  0.5015497695705662   T   T   T
  0.9583203520454830  0.2916527951165335  0.5015532548927055   T   T   T
  0.9583181436048420  0.4166512398511486  0.5016072750322422   T   T   T
  0.9583137592800028  0.5416450811326712  0.5016591410856037   T   T   T
  0.9583141925755072  0.6666459693609568  0.5016761475849734   T   T   T
  0.9583170992470613  0.7916493207116986  0.5016651233514651   T   T   T
  0.9583195599522014  0.9166524644817642  0.5016282990082459   T   T   T
  0.0416542926412475  0.0833231193234454  0.5015478615218285   T   T   T
  0.0416536515533963  0.2083220840835907  0.5015046730663144   T   T   T
  0.0416511789228764  0.3333196215021701  0.5014876194936093   T   T   T
  0.0416517586108966  0.4583184372955600  0.5015526783672755   T   T   T
  0.0416487286408795  0.5833143741236810  0.5016324245750923   T   T   T
  0.0416480996882882  0.7083144015544960  0.5016686175191936   T   T   T
  0.0416511061347293  0.8333183828206501  0.5016431676766260   T   T   T
  0.0416531782175866  0.9583209759534910  0.5015891320492045   T   T   T
  0.1666532395388884  0.0833224448546588  0.5015620391346971   T   T   T
  0.1666554282170267  0.2083249194095060  0.5015423178233220   T   T   T
  0.1666504543088223  0.3333235740875722  0.5014340243240767   T   T   T
  0.1666524441568029  0.4583190564738686  0.5014733441834736   T   T   T
  0.1666522453565946  0.5833173512481906  0.5015657665260989   T   T   T
  0.1666480140841173  0.7083138208328847  0.5016624195109785   T   T   T
  0.1666483802993994  0.8333158348237433  0.5016724775627921   T   T   T
  0.1666530421473595  0.9583215088975621  0.5016018074131097   T   T   T
  0.2916549170003151  0.0833232936287800  0.5015884709938092   T   T   T
  0.2916509280765354  0.2083243241475898  0.5015868121421931   T   T   T
  0.2916451189266169  0.3333144944491053  0.5015006692391211   T   T   T
  0.2916524332467318  0.4583178879196765  0.5014531306179251   T   T   T
  0.2916527990707465  0.5833174599623305  0.5015038155396994   T   T   T
  0.2916503524249947  0.7083148436617179  0.5016136940408913   T   T   T
  0.2916465228884135  0.8333126075236805  0.5016849095218916   T   T   T
  0.2916489514943805  0.9583161321587852  0.5016390637382671   T   T   T
  0.4166500534823285  0.0833164926754293  0.5016083060247354   T   T   T
  0.4166515776874675  0.2083203770431936  0.5015834349560109   T   T   T
  0.4166495523959100  0.3333193015810281  0.5015335586289282   T   T   T
  0.4166477828354118  0.4583174958272593  0.5014733148435724   T   T   T
  0.4166526106778790  0.5833180844411530  0.5014919521539909   T   T   T
  0.4166523063180563  0.7083160777731834  0.5015758454201134   T   T   T
  0.4166482588107101  0.8333130313322741  0.5016572766644956   T   T   T
  0.4166465362723741  0.9583123765760817  0.5016664088811567   T   T   T
  0.5416466271652638  0.0833113197426627  0.5016487164323138   T   T   T
  0.5416491443929630  0.2083147494915210  0.5016081301520501   T   T   T
  0.5416490785766896  0.3333160791455612  0.5015631413990533   T   T   T
  0.5416487272254145  0.4583172823841082  0.5015209881141587   T   T   T
  0.5416526582828070  0.5833191153378792  0.5015228935703817   T   T   T
  0.5416536781901797  0.7083175183742014  0.5015846697354718   T   T   T
  0.5416507347826141  0.8333144520367455  0.5016412709473173   T   T   T
  0.5416474931734498  0.9583119149744732  0.5016642012998744   T   T   T
  0.6666478803744411  0.0833115591828530  0.5016554099856805   T   T   T
  0.6666467056104466  0.2083101883672001  0.5016679534504789   T   T   T
  0.6666472570751054  0.3333120004500643  0.5016395846162922   T   T   T
  0.6666475774326486  0.4583131564904619  0.5015951273696544   T   T   T
  0.6666506243860439  0.5833156406801692  0.5015883113773825   T   T   T
  0.6666545615628152  0.7083179714903949  0.5016301689029561   T   T   T
  0.6666531443881993  0.8333165031569081  0.5016670167352402   T   T   T
  0.6666506857933783  0.9583141425119379  0.5016584442928433   T   T   T
  0.7916518117983529  0.0833168226776380  0.5016141633487834   T   T   T
  0.7916490547034840  0.2083135899742032  0.5016355238747607   T   T   T
  0.7916458236361308  0.3333101841621158  0.5016744613460489   T   T   T
  0.7916462649910727  0.4583106996764457  0.5016679968756179   T   T   T
  0.7916484132737196  0.5833126509586464  0.5016458192666278   T   T   T
  0.7916518716710854  0.7083158928757030  0.5016621307832025   T   T   T
  0.7916542909465392  0.8333183035408567  0.5016771317624276   T   T   T
  0.7916531818589831  0.9583175874846006  0.5016460481208185   T   T   T
  0.9166529272308637  0.0833198036844394  0.5015659189735970   T   T   T
  0.9166525025423695  0.2083190544818834  0.5015488944524833   T   T   T
  0.9166496076902675  0.3333163792674512  0.5015891853354191   T   T   T
  0.9166470877559192  0.4583125963271897  0.5016432023797250   T   T   T
  0.9166471502716504  0.5833122262135504  0.5016629646772159   T   T   T
  0.9166495458686938  0.7083148297376241  0.5016625397020178   T   T   T
  0.9166527252592189  0.8333184286580462  0.5016514024441747   T   T   T
  0.9166541503093626  0.9583205148351368  0.5016089912652788   T   T   T
  0.2793884222064449  0.2354438749735692  0.6752066605465927   T   T   T
  0.2652609752225601  0.2374140048847266  0.6322182787327080   T   T   T
  0.2568885715119364  0.3070480293782296  0.6197725786691564   T   T   T
  0.3457486142173565  0.2972530562306588  0.6857823655307982   T   T   T
  0.2829120990121154  0.1722901625027333  0.6845037797514095   T   T   T
  0.2220598739051525  0.2346183194855627  0.6953911074362651   T   T   T
  0.3253439196299510  0.2375340333579672  0.6137738263315242   T   T   T
  0.2007495987731360  0.1694166789703004  0.6236623839931141   T   T   T
  0.3184753978203503  0.3681260815127771  0.6144957103762110   T   T   T
  0.1899414012697562  0.2950114146017455  0.6171585250231004   T   T   T
 
  0.00000000E+00  0.00000000E+00  0.00000000E+00
  0.00000000E+00  0.00000000E+00  0.00000000E+00
  0.00000000E+00  0.00000000E+00  0.00000000E+00
  0.00000000E+00  0.00000000E+00  0.00000000E+00
  0.00000000E+00  0.00000000E+00  0.00000000E+00
  0.00000000E+00  0.00000000E+00  0.00000000E+00
  0.00000000E+00  0.00000000E+00  0.00000000E+00
  0.00000000E+00  0.00000000E+00  0.00000000E+00
  0.00000000E+00  0.00000000E+00  0.00000000E+00
  0.00000000E+00  0.00000000E+00  0.00000000E+00
  0.00000000E+00  0.00000000E+00  0.00000000E+00
  0.00000000E+00  0.00000000E+00  0.00000000E+00
  0.00000000E+00  0.00000000E+00  0.00000000E+00
  0.00000000E+00  0.00000000E+00  0.00000000E+00
  0.00000000E+00  0.00000000E+00  0.00000000E+00
  0.00000000E+00  0.00000000E+00  0.00000000E+00
  0.00000000E+00  0.00000000E+00  0.00000000E+00
  0.00000000E+00  0.00000000E+00  0.00000000E+00
  0.00000000E+00  0.00000000E+00  0.00000000E+00
  0.00000000E+00  0.00000000E+00  0.00000000E+00
  0.00000000E+00  0.00000000E+00  0.00000000E+00
  0.00000000E+00  0.00000000E+00  0.00000000E+00
  0.00000000E+00  0.00000000E+00  0.00000000E+00
  0.00000000E+00  0.00000000E+00  0.00000000E+00
  0.00000000E+00  0.00000000E+00  0.00000000E+00
  0.00000000E+00  0.00000000E+00  0.00000000E+00
  0.00000000E+00  0.00000000E+00  0.00000000E+00
  0.00000000E+00  0.00000000E+00  0.00000000E+00
  0.00000000E+00  0.00000000E+00  0.00000000E+00
  0.00000000E+00  0.00000000E+00  0.00000000E+00
  0.00000000E+00  0.00000000E+00  0.00000000E+00
  0.00000000E+00  0.00000000E+00  0.00000000E+00
  0.00000000E+00  0.00000000E+00  0.00000000E+00
  0.00000000E+00  0.00000000E+00  0.00000000E+00
  0.00000000E+00  0.00000000E+00  0.00000000E+00
  0.00000000E+00  0.00000000E+00  0.00000000E+00
  0.00000000E+00  0.00000000E+00  0.00000000E+00
  0.00000000E+00  0.00000000E+00  0.00000000E+00
  0.00000000E+00  0.00000000E+00  0.00000000E+00
  0.00000000E+00  0.00000000E+00  0.00000000E+00
  0.00000000E+00  0.00000000E+00  0.00000000E+00
  0.00000000E+00  0.00000000E+00  0.00000000E+00
  0.00000000E+00  0.00000000E+00  0.00000000E+00
  0.00000000E+00  0.00000000E+00  0.00000000E+00
  0.00000000E+00  0.00000000E+00  0.00000000E+00
  0.00000000E+00  0.00000000E+00  0.00000000E+00
  0.00000000E+00  0.00000000E+00  0.00000000E+00
  0.00000000E+00  0.00000000E+00  0.00000000E+00
  0.00000000E+00  0.00000000E+00  0.00000000E+00
  0.00000000E+00  0.00000000E+00  0.00000000E+00
  0.00000000E+00  0.00000000E+00  0.00000000E+00
  0.00000000E+00  0.00000000E+00  0.00000000E+00
  0.00000000E+00  0.00000000E+00  0.00000000E+00
  0.00000000E+00  0.00000000E+00  0.00000000E+00
  0.00000000E+00  0.00000000E+00  0.00000000E+00
  0.00000000E+00  0.00000000E+00  0.00000000E+00
  0.00000000E+00  0.00000000E+00  0.00000000E+00
  0.00000000E+00  0.00000000E+00  0.00000000E+00
  0.00000000E+00  0.00000000E+00  0.00000000E+00
  0.00000000E+00  0.00000000E+00  0.00000000E+00
  0.00000000E+00  0.00000000E+00  0.00000000E+00
  0.00000000E+00  0.00000000E+00  0.00000000E+00
  0.00000000E+00  0.00000000E+00  0.00000000E+00
  0.00000000E+00  0.00000000E+00  0.00000000E+00
  0.00000000E+00  0.00000000E+00  0.00000000E+00
  0.00000000E+00  0.00000000E+00  0.00000000E+00
  0.00000000E+00  0.00000000E+00  0.00000000E+00
  0.00000000E+00  0.00000000E+00  0.00000000E+00
  0.00000000E+00  0.00000000E+00  0.00000000E+00
  0.00000000E+00  0.00000000E+00  0.00000000E+00
  0.00000000E+00  0.00000000E+00  0.00000000E+00
  0.00000000E+00  0.00000000E+00  0.00000000E+00
  0.00000000E+00  0.00000000E+00  0.00000000E+00
  0.00000000E+00  0.00000000E+00  0.00000000E+00
  0.00000000E+00  0.00000000E+00  0.00000000E+00
  0.00000000E+00  0.00000000E+00  0.00000000E+00
  0.00000000E+00  0.00000000E+00  0.00000000E+00
  0.00000000E+00  0.00000000E+00  0.00000000E+00
  0.00000000E+00  0.00000000E+00  0.00000000E+00
  0.00000000E+00  0.00000000E+00  0.00000000E+00
  0.00000000E+00  0.00000000E+00  0.00000000E+00
  0.00000000E+00  0.00000000E+00  0.00000000E+00
  0.00000000E+00  0.00000000E+00  0.00000000E+00
  0.00000000E+00  0.00000000E+00  0.00000000E+00
  0.00000000E+00  0.00000000E+00  0.00000000E+00
  0.00000000E+00  0.00000000E+00  0.00000000E+00
  0.00000000E+00  0.00000000E+00  0.00000000E+00
  0.00000000E+00  0.00000000E+00  0.00000000E+00
  0.00000000E+00  0.00000000E+00  0.00000000E+00
  0.00000000E+00  0.00000000E+00  0.00000000E+00
  0.00000000E+00  0.00000000E+00  0.00000000E+00
  0.00000000E+00  0.00000000E+00  0.00000000E+00
  0.00000000E+00  0.00000000E+00  0.00000000E+00
  0.00000000E+00  0.00000000E+00  0.00000000E+00
  0.00000000E+00  0.00000000E+00  0.00000000E+00
  0.00000000E+00  0.00000000E+00  0.00000000E+00
  0.00000000E+00  0.00000000E+00  0.00000000E+00
  0.00000000E+00  0.00000000E+00  0.00000000E+00
  0.00000000E+00  0.00000000E+00  0.00000000E+00
  0.00000000E+00  0.00000000E+00  0.00000000E+00
  0.00000000E+00  0.00000000E+00  0.00000000E+00
  0.00000000E+00  0.00000000E+00  0.00000000E+00
  0.00000000E+00  0.00000000E+00  0.00000000E+00
  0.00000000E+00  0.00000000E+00  0.00000000E+00
  0.00000000E+00  0.00000000E+00  0.00000000E+00
  0.00000000E+00  0.00000000E+00  0.00000000E+00
  0.00000000E+00  0.00000000E+00  0.00000000E+00
  0.00000000E+00  0.00000000E+00  0.00000000E+00
  0.00000000E+00  0.00000000E+00  0.00000000E+00
  0.00000000E+00  0.00000000E+00  0.00000000E+00
  0.00000000E+00  0.00000000E+00  0.00000000E+00
  0.00000000E+00  0.00000000E+00  0.00000000E+00
  0.00000000E+00  0.00000000E+00  0.00000000E+00
  0.00000000E+00  0.00000000E+00  0.00000000E+00
  0.00000000E+00  0.00000000E+00  0.00000000E+00
  0.00000000E+00  0.00000000E+00  0.00000000E+00
  0.00000000E+00  0.00000000E+00  0.00000000E+00
  0.00000000E+00  0.00000000E+00  0.00000000E+00
  0.00000000E+00  0.00000000E+00  0.00000000E+00
  0.00000000E+00  0.00000000E+00  0.00000000E+00
  0.00000000E+00  0.00000000E+00  0.00000000E+00
  0.00000000E+00  0.00000000E+00  0.00000000E+00
  0.00000000E+00  0.00000000E+00  0.00000000E+00
  0.00000000E+00  0.00000000E+00  0.00000000E+00
  0.00000000E+00  0.00000000E+00  0.00000000E+00
  0.00000000E+00  0.00000000E+00  0.00000000E+00
  0.00000000E+00  0.00000000E+00  0.00000000E+00
  0.00000000E+00  0.00000000E+00  0.00000000E+00
  0.00000000E+00  0.00000000E+00  0.00000000E+00
  0.00000000E+00  0.00000000E+00  0.00000000E+00
  0.00000000E+00  0.00000000E+00  0.00000000E+00
  0.00000000E+00  0.00000000E+00  0.00000000E+00
  0.00000000E+00  0.00000000E+00  0.00000000E+00
  0.00000000E+00  0.00000000E+00  0.00000000E+00
  0.00000000E+00  0.00000000E+00  0.00000000E+00
  0.00000000E+00  0.00000000E+00  0.00000000E+00
  0.00000000E+00  0.00000000E+00  0.00000000E+00
  0.00000000E+00  0.00000000E+00  0.00000000E+00
