B N O                                   
   1.00000000000000     
     7.5365500567000003  -13.0537460594369996    0.0000000000000000
     7.5365500567000003   13.0537460594369996    0.0000000000000000
     0.0000000000000000    0.0000000000000000   35.1146643855649998
   B    N    O 
    36    35     1
Selective dynamics
Direct
  0.1111275887613743  0.0555882183717614  0.5000000000000000   T   T   T
  0.1110291487128647  0.2222096088497555  0.5000000000000000   T   T   T
  0.1106692647836012  0.3887706175249001  0.5000000000000000   T   T   T
  0.1106692647836012  0.5552323537147108  0.5000000000000000   T   T   T
  0.1110291487128647  0.7221532463181031  0.5000000000000000   T   T   T
  0.1111275887613743  0.8888730768456228  0.5000000000000000   T   T   T
  0.2778358468513745  0.0555847766536993  0.5000000000000000   T   T   T
  0.2778474192888942  0.2222096088497555  0.5000000000000000   T   T   T
  0.2775725547921709  0.3884781504323312  0.5000000000000000   T   T   T
  0.2745245851742019  0.5539291458150917  0.5000000000000000   T   T   T
  0.2775725547921709  0.7224281108148262  0.5000000000000000   T   T   T
  0.2778474192888942  0.8889715168941325  0.5000000000000000   T   T   T
  0.4445397497849238  0.0556378105213189  0.5000000000000000   T   T   T
  0.4445397497849238  0.2222356457185987  0.5000000000000000   T   T   T
  0.4447683118932952  0.3887706175249001  0.5000000000000000   T   T   T
  0.4460715197929143  0.5539291458150917  0.5000000000000000   T   T   T
  0.4460715197929144  0.7254760804327950  0.5000000000000000   T   T   T
  0.4447683118932952  0.8893314008233959  0.5000000000000000   T   T   T
  0.6112180682309807  0.0557691773109741  0.5000000000000000   T   T   T
  0.6111515740337241  0.2222426402443589  0.5000000000000000   T   T   T
  0.6112180682309807  0.3887825973760164  0.5000000000000000   T   T   T
  0.6112300480820971  0.5552323537147108  0.5000000000000000   T   T   T
  0.6115225151746657  0.7224281108148262  0.5000000000000000   T   T   T
  0.6112300480820971  0.8893314008233959  0.5000000000000000   T   T   T
  0.7777650198883986  0.0556378105213189  0.5000000000000000   T   T   T
  0.7777580253626384  0.2222426402443589  0.5000000000000000   T   T   T
  0.7777580253626384  0.3888490915732659  0.5000000000000000   T   T   T
  0.7777650198883986  0.5554609158230821  0.5000000000000000   T   T   T
  0.7777910567572345  0.7221532463181031  0.5000000000000000   T   T   T
  0.7777910567572345  0.8889715168941325  0.5000000000000000   T   T   T
  0.9444158889543141  0.0555847766536993  0.5000000000000000   T   T   T
  0.9443628550866870  0.2222356457185987  0.5000000000000000   T   T   T
  0.9442314882970321  0.3887825973760164  0.5000000000000000   T   T   T
  0.9443628550866870  0.5554609158230821  0.5000000000000000   T   T   T
  0.9444158889543141  0.7221648187556224  0.5000000000000000   T   T   T
  0.9444124472362446  0.8888730768456228  0.5000000000000000   T   T   T
  0.0556086269080065  0.1112617697085897  0.5000000000000000   T   T   T
  0.0558030463582278  0.2781013719309714  0.5000000000000000   T   T   T
  0.0557667984426261  0.4445502121308210  0.5000000000000000   T   T   T
  0.0558030463582278  0.6110353002452703  0.5000000000000000   T   T   T
  0.0556086269080065  0.7776804830174094  0.5000000000000000   T   T   T
  0.0555559017990035  0.9444447638090026  0.5000000000000000   T   T   T
  0.2223201825895876  0.1112617697085897  0.5000000000000000   T   T   T
  0.2224337091262089  0.2782003784643939  0.5000000000000000   T   T   T
  0.2231407935576222  0.4452784587217288  0.5000000000000000   T   T   T
  0.2231407935576222  0.6111959606549162  0.5000000000000000   T   T   T
  0.2224337091262089  0.7775669564807881  0.5000000000000000   T   T   T
  0.2223201825895876  0.9443920386999924  0.5000000000000000   T   T   T
  0.3889469263783987  0.1111402760981957  0.5000000000000000   T   T   T
  0.3889653653617197  0.2781013719309714  0.5000000000000000   T   T   T
  0.3888047049520808  0.4452784587217288  0.5000000000000000   T   T   T
  0.3888047049520808  0.7768598720493750  0.5000000000000000   T   T   T
  0.3889653653617197  0.9441976192497783  0.5000000000000000   T   T   T
  0.5555632066826510  0.1110796966243458  0.5000000000000000   T   T   T
  0.5555632066826510  0.2778171358763051  0.5000000000000000   T   T   T
  0.5554504534771850  0.4445502121308210  0.5000000000000000   T   T   T
  0.5547222068862773  0.6111959606549162  0.5000000000000000   T   T   T
  0.5547222068862773  0.7768598720493750  0.5000000000000000   T   T   T
  0.5554504534771850  0.9442338671653798  0.5000000000000000   T   T   T
  0.7221835297306922  0.1110796966243458  0.5000000000000000   T   T   T
  0.7222225684649999  0.2777780971419972  0.5000000000000000   T   T   T
  0.7221835297306921  0.4444374589253549  0.5000000000000000   T   T   T
  0.7218992936760399  0.6110353002452703  0.5000000000000000   T   T   T
  0.7218002871426104  0.7775669564807881  0.5000000000000000   T   T   T
  0.7218992936760399  0.9441976192497783  0.5000000000000000   T   T   T
  0.8888603895088014  0.1111402760981957  0.5000000000000000   T   T   T
  0.8889209689826512  0.2778171358763051  0.5000000000000000   T   T   T
  0.8889209689826512  0.4444374589253549  0.5000000000000000   T   T   T
  0.8888603895088014  0.6110537392285983  0.5000000000000000   T   T   T
  0.8887388958984074  0.7776804830174094  0.5000000000000000   T   T   T
  0.8887388958984074  0.9443920386999924  0.5000000000000000   T   T   T
  0.3888892351319981  0.6111114304749989  0.5000000000000000   T   T   T
 
  0.00000000E+00  0.00000000E+00  0.00000000E+00
  0.00000000E+00  0.00000000E+00  0.00000000E+00
  0.00000000E+00  0.00000000E+00  0.00000000E+00
  0.00000000E+00  0.00000000E+00  0.00000000E+00
  0.00000000E+00  0.00000000E+00  0.00000000E+00
  0.00000000E+00  0.00000000E+00  0.00000000E+00
  0.00000000E+00  0.00000000E+00  0.00000000E+00
  0.00000000E+00  0.00000000E+00  0.00000000E+00
  0.00000000E+00  0.00000000E+00  0.00000000E+00
  0.00000000E+00  0.00000000E+00  0.00000000E+00
  0.00000000E+00  0.00000000E+00  0.00000000E+00
  0.00000000E+00  0.00000000E+00  0.00000000E+00
  0.00000000E+00  0.00000000E+00  0.00000000E+00
  0.00000000E+00  0.00000000E+00  0.00000000E+00
  0.00000000E+00  0.00000000E+00  0.00000000E+00
  0.00000000E+00  0.00000000E+00  0.00000000E+00
  0.00000000E+00  0.00000000E+00  0.00000000E+00
  0.00000000E+00  0.00000000E+00  0.00000000E+00
  0.00000000E+00  0.00000000E+00  0.00000000E+00
  0.00000000E+00  0.00000000E+00  0.00000000E+00
  0.00000000E+00  0.00000000E+00  0.00000000E+00
  0.00000000E+00  0.00000000E+00  0.00000000E+00
  0.00000000E+00  0.00000000E+00  0.00000000E+00
  0.00000000E+00  0.00000000E+00  0.00000000E+00
  0.00000000E+00  0.00000000E+00  0.00000000E+00
  0.00000000E+00  0.00000000E+00  0.00000000E+00
  0.00000000E+00  0.00000000E+00  0.00000000E+00
  0.00000000E+00  0.00000000E+00  0.00000000E+00
  0.00000000E+00  0.00000000E+00  0.00000000E+00
  0.00000000E+00  0.00000000E+00  0.00000000E+00
  0.00000000E+00  0.00000000E+00  0.00000000E+00
  0.00000000E+00  0.00000000E+00  0.00000000E+00
  0.00000000E+00  0.00000000E+00  0.00000000E+00
  0.00000000E+00  0.00000000E+00  0.00000000E+00
  0.00000000E+00  0.00000000E+00  0.00000000E+00
  0.00000000E+00  0.00000000E+00  0.00000000E+00
  0.00000000E+00  0.00000000E+00  0.00000000E+00
  0.00000000E+00  0.00000000E+00  0.00000000E+00
  0.00000000E+00  0.00000000E+00  0.00000000E+00
  0.00000000E+00  0.00000000E+00  0.00000000E+00
  0.00000000E+00  0.00000000E+00  0.00000000E+00
  0.00000000E+00  0.00000000E+00  0.00000000E+00
  0.00000000E+00  0.00000000E+00  0.00000000E+00
  0.00000000E+00  0.00000000E+00  0.00000000E+00
  0.00000000E+00  0.00000000E+00  0.00000000E+00
  0.00000000E+00  0.00000000E+00  0.00000000E+00
  0.00000000E+00  0.00000000E+00  0.00000000E+00
  0.00000000E+00  0.00000000E+00  0.00000000E+00
  0.00000000E+00  0.00000000E+00  0.00000000E+00
  0.00000000E+00  0.00000000E+00  0.00000000E+00
  0.00000000E+00  0.00000000E+00  0.00000000E+00
  0.00000000E+00  0.00000000E+00  0.00000000E+00
  0.00000000E+00  0.00000000E+00  0.00000000E+00
  0.00000000E+00  0.00000000E+00  0.00000000E+00
  0.00000000E+00  0.00000000E+00  0.00000000E+00
  0.00000000E+00  0.00000000E+00  0.00000000E+00
  0.00000000E+00  0.00000000E+00  0.00000000E+00
  0.00000000E+00  0.00000000E+00  0.00000000E+00
  0.00000000E+00  0.00000000E+00  0.00000000E+00
  0.00000000E+00  0.00000000E+00  0.00000000E+00
  0.00000000E+00  0.00000000E+00  0.00000000E+00
  0.00000000E+00  0.00000000E+00  0.00000000E+00
  0.00000000E+00  0.00000000E+00  0.00000000E+00
  0.00000000E+00  0.00000000E+00  0.00000000E+00
  0.00000000E+00  0.00000000E+00  0.00000000E+00
  0.00000000E+00  0.00000000E+00  0.00000000E+00
  0.00000000E+00  0.00000000E+00  0.00000000E+00
  0.00000000E+00  0.00000000E+00  0.00000000E+00
  0.00000000E+00  0.00000000E+00  0.00000000E+00
  0.00000000E+00  0.00000000E+00  0.00000000E+00
  0.00000000E+00  0.00000000E+00  0.00000000E+00
  0.00000000E+00  0.00000000E+00  0.00000000E+00
