B H N O                                 
   1.00000000000000     
     7.5365500000000001    0.0000000000000000  -13.0536999999999992
     0.0000000000000000   15.0000000000000000    0.0000000000000000
    30.1461000000000006    0.0000000000000000   52.2150000000000034
   B    H    N    O 
    36    12    36     6
Selective dynamics
Direct
  0.1182569705492524  0.5046514347086730  0.3904621987631887   T   T   T
  0.1170928695361626  0.4998336708651636  0.4317378996143938   T   T   T
  0.1160166131457462  0.4991055955776169  0.4730816021039386   T   T   T
  0.1153783733307846  0.4994785041198139  0.5144058377139860   T   T   T
  0.1151406402340664  0.4996879476157333  0.5557919396627438   T   T   T
  0.1151203537147061  0.4998807247017578  0.5973201462430384   T   T   T
  0.2849805541470009  0.5105316021533244  0.3905012975796578   T   T   T
  0.2837539347763473  0.5034839692178396  0.4317492550361413   T   T   T
  0.2826978068623793  0.5001045044505540  0.4730876561957703   T   T   T
  0.2820541083040286  0.4996438269600491  0.5144104785408273   T   T   T
  0.2818127033532105  0.4997224362083904  0.5557943217632098   T   T   T
  0.2817886294838510  0.4998849829289387  0.5973213657454087   T   T   T
  0.4516250078100973  0.5078112041445184  0.3904650564455842   T   T   T
  0.4504216788923913  0.5042695773309108  0.4317465319264832   T   T   T
  0.4493575520973152  0.5009886380014859  0.4730860016662141   T   T   T
  0.4487261299002969  0.4997921542738878  0.5144112133731528   T   T   T
  0.4484857739292781  0.4997403818612762  0.5557962448925633   T   T   T
  0.4484609478850751  0.4998634867023966  0.5973239366565490   T   T   T
  0.6182374027398482  0.5020700359683398  0.3904362828020866   T   T   T
  0.6170527367621245  0.5018400655505932  0.4317288202736715   T   T   T
  0.6160043948066396  0.5005899937204182  0.4730787002588604   T   T   T
  0.6153853196214774  0.4997670031210489  0.5144082355527704   T   T   T
  0.6151528164514538  0.4997296898966424  0.5557949645674105   T   T   T
  0.6151308099561841  0.4998391454555877  0.5973238701332482   T   T   T
  0.7849119732162765  0.4971042053813280  0.3904375299792835   T   T   T
  0.7837116541029769  0.4991282942447977  0.4317247411087333   T   T   T
  0.7826654537649916  0.4996515042860731  0.4730738757976733   T   T   T
  0.7820458488393817  0.4996244336030816  0.5144034628372850   T   T   T
  0.7818154133202402  0.4996924465297207  0.5557922692667221   T   T   T
  0.7817940921793572  0.4998311823669046  0.5973218395277325   T   T   T
  0.9516581430605557  0.4968237415544263  0.3904478688890335   T   T   T
  0.9504058812758497  0.4978343253316949  0.4317317205686528   T   T   T
  0.9493335189676556  0.4989670007520242  0.4730745077881691   T   T   T
  0.9487123526916091  0.4994892648877909  0.5144025008789919   T   T   T
  0.9484742403370221  0.4996732487027567  0.5557902108883215   T   T   T
  0.9484558839666183  0.4998499432987034  0.5973205287989153   T   T   T
  0.0966025866067167  0.5000394198417770  0.6297323903799115   T   T   T
  0.2632656748321368  0.5000567126103920  0.6297332735943021   T   T   T
  0.4299303296954936  0.5000247065259921  0.6297344077806565   T   T   T
  0.5966007454965286  0.4999800413788286  0.6297349628110510   T   T   T
  0.7632713821872685  0.4999622019039748  0.6297344789205036   T   T   T
  0.9299405251478304  0.4999873070983477  0.6297332005288563   T   T   T
  0.1091825292295820  0.5103869980915432  0.3569415889884647   T   T   T
  0.2759519273178803  0.5167160886019254  0.3569903569943582   T   T   T
  0.4426661447626548  0.5099671771368336  0.3569314163218887   T   T   T
  0.6092811372898719  0.5016562952151776  0.3568949543347114   T   T   T
  0.7759714860754744  0.4951673067540091  0.3568975989985274   T   T   T
  0.9426634878630464  0.4971232940105080  0.3568989634708893   T   T   T
  0.0621394731101873  0.5001305848050139  0.4040768012796311   T   T   T
  0.0610781082294342  0.4985799071667710  0.4454419929873301   T   T   T
  0.0600566293471854  0.4991805719744448  0.4867720522498866   T   T   T
  0.0594952797773142  0.4995643942552138  0.5281002903613149   T   T   T
  0.0592251050066635  0.4997439525881747  0.5694726508233136   T   T   T
  0.0579200436954440  0.4999363305134671  0.6103811916974989   T   T   T
  0.2287754319884085  0.5067864912109747  0.4041035177857176   T   T   T
  0.2277588221222097  0.5008624679056233  0.4454494967128866   T   T   T
  0.2267355996749919  0.4995687504408736  0.4867777772063475   T   T   T
  0.2261635266510628  0.4996409995864472  0.5281032864522488   T   T   T
  0.2258935693473397  0.4997613605884828  0.5694741923993674   T   T   T
  0.2245861021625443  0.4999614217377654  0.6103821211909438   T   T   T
  0.3954824364431525  0.5078916837355709  0.4041031479648954   T   T   T
  0.3944244910797300  0.5030584998743658  0.4454528318469425   T   T   T
  0.3934103104295251  0.5001237721188435  0.4867788712819943   T   T   T
  0.3928390995053213  0.4997221544761382  0.5281057216753564   T   T   T
  0.3925666777380976  0.4997702431147060  0.5694766535041808   T   T   T
  0.3912553433720211  0.4999366742509267  0.6103838344340797   T   T   T
  0.5620862382323958  0.5037114804134776  0.4040703669177927   T   T   T
  0.5610661017436404  0.5021060984957447  0.4454414861782564   T   T   T
  0.5600654286920240  0.5002005943728097  0.4867750019248583   T   T   T
  0.5595071439499937  0.4997326067428439  0.5281049133620088   T   T   T
  0.5592385029764014  0.4997670568419239  0.5694769090014210   T   T   T
  0.5579270051341404  0.4998962272192451  0.6103844571506858   T   T   T
  0.7287393425437675  0.4991863690525090  0.4040623673559343   T   T   T
  0.7277139593532309  0.4999755870309894  0.4454330168683646   T   T   T
  0.7267200084332126  0.4998008354628236  0.4867694799594284   T   T   T
  0.7261678739463505  0.4996505679416354  0.5281008755038802   T   T   T
  0.7259026537680798  0.4997497818085313  0.5694744831927503   T   T   T
  0.7245947484994277  0.4998735258774907  0.6103837385493484   T   T   T
  0.8954556619173459  0.4965514518671922  0.4040708114973445   T   T   T
  0.8943857985405396  0.4983835635767666  0.4454347953971077   T   T   T
  0.8933866867883296  0.4993470689473628  0.4867679764807530   T   T   T
  0.8928298397394452  0.4995756355135483  0.5280982664366487   T   T   T
  0.8925636261232431  0.4997356043222869  0.5694727518551340   T   T   T
  0.8912574292337379  0.4998878966742941  0.6103822906207447   T   T   T
  0.0634535601104722  0.5067744269486252  0.3641463053444668   T   T   T
  0.2302499285565517  0.5164497042755571  0.3642333005568415   T   T   T
  0.3969526595849787  0.5116765899940543  0.3641663694008212   T   T   T
  0.5635265338865564  0.5035591902737769  0.3641175768025308   T   T   T
  0.7301759219806333  0.4960300166683247  0.3641155189269071   T   T   T
  0.8970193030561678  0.4939571368118735  0.3641347908884841   T   T   T
 
  0.00000000E+00  0.00000000E+00  0.00000000E+00
  0.00000000E+00  0.00000000E+00  0.00000000E+00
  0.00000000E+00  0.00000000E+00  0.00000000E+00
  0.00000000E+00  0.00000000E+00  0.00000000E+00
  0.00000000E+00  0.00000000E+00  0.00000000E+00
  0.00000000E+00  0.00000000E+00  0.00000000E+00
  0.00000000E+00  0.00000000E+00  0.00000000E+00
  0.00000000E+00  0.00000000E+00  0.00000000E+00
  0.00000000E+00  0.00000000E+00  0.00000000E+00
  0.00000000E+00  0.00000000E+00  0.00000000E+00
  0.00000000E+00  0.00000000E+00  0.00000000E+00
  0.00000000E+00  0.00000000E+00  0.00000000E+00
  0.00000000E+00  0.00000000E+00  0.00000000E+00
  0.00000000E+00  0.00000000E+00  0.00000000E+00
  0.00000000E+00  0.00000000E+00  0.00000000E+00
  0.00000000E+00  0.00000000E+00  0.00000000E+00
  0.00000000E+00  0.00000000E+00  0.00000000E+00
  0.00000000E+00  0.00000000E+00  0.00000000E+00
  0.00000000E+00  0.00000000E+00  0.00000000E+00
  0.00000000E+00  0.00000000E+00  0.00000000E+00
  0.00000000E+00  0.00000000E+00  0.00000000E+00
  0.00000000E+00  0.00000000E+00  0.00000000E+00
  0.00000000E+00  0.00000000E+00  0.00000000E+00
  0.00000000E+00  0.00000000E+00  0.00000000E+00
  0.00000000E+00  0.00000000E+00  0.00000000E+00
  0.00000000E+00  0.00000000E+00  0.00000000E+00
  0.00000000E+00  0.00000000E+00  0.00000000E+00
  0.00000000E+00  0.00000000E+00  0.00000000E+00
  0.00000000E+00  0.00000000E+00  0.00000000E+00
  0.00000000E+00  0.00000000E+00  0.00000000E+00
  0.00000000E+00  0.00000000E+00  0.00000000E+00
  0.00000000E+00  0.00000000E+00  0.00000000E+00
  0.00000000E+00  0.00000000E+00  0.00000000E+00
  0.00000000E+00  0.00000000E+00  0.00000000E+00
  0.00000000E+00  0.00000000E+00  0.00000000E+00
  0.00000000E+00  0.00000000E+00  0.00000000E+00
  0.00000000E+00  0.00000000E+00  0.00000000E+00
  0.00000000E+00  0.00000000E+00  0.00000000E+00
  0.00000000E+00  0.00000000E+00  0.00000000E+00
  0.00000000E+00  0.00000000E+00  0.00000000E+00
  0.00000000E+00  0.00000000E+00  0.00000000E+00
  0.00000000E+00  0.00000000E+00  0.00000000E+00
  0.00000000E+00  0.00000000E+00  0.00000000E+00
  0.00000000E+00  0.00000000E+00  0.00000000E+00
  0.00000000E+00  0.00000000E+00  0.00000000E+00
  0.00000000E+00  0.00000000E+00  0.00000000E+00
  0.00000000E+00  0.00000000E+00  0.00000000E+00
  0.00000000E+00  0.00000000E+00  0.00000000E+00
  0.00000000E+00  0.00000000E+00  0.00000000E+00
  0.00000000E+00  0.00000000E+00  0.00000000E+00
  0.00000000E+00  0.00000000E+00  0.00000000E+00
  0.00000000E+00  0.00000000E+00  0.00000000E+00
  0.00000000E+00  0.00000000E+00  0.00000000E+00
  0.00000000E+00  0.00000000E+00  0.00000000E+00
  0.00000000E+00  0.00000000E+00  0.00000000E+00
  0.00000000E+00  0.00000000E+00  0.00000000E+00
  0.00000000E+00  0.00000000E+00  0.00000000E+00
  0.00000000E+00  0.00000000E+00  0.00000000E+00
  0.00000000E+00  0.00000000E+00  0.00000000E+00
  0.00000000E+00  0.00000000E+00  0.00000000E+00
  0.00000000E+00  0.00000000E+00  0.00000000E+00
  0.00000000E+00  0.00000000E+00  0.00000000E+00
  0.00000000E+00  0.00000000E+00  0.00000000E+00
  0.00000000E+00  0.00000000E+00  0.00000000E+00
  0.00000000E+00  0.00000000E+00  0.00000000E+00
  0.00000000E+00  0.00000000E+00  0.00000000E+00
  0.00000000E+00  0.00000000E+00  0.00000000E+00
  0.00000000E+00  0.00000000E+00  0.00000000E+00
  0.00000000E+00  0.00000000E+00  0.00000000E+00
  0.00000000E+00  0.00000000E+00  0.00000000E+00
  0.00000000E+00  0.00000000E+00  0.00000000E+00
  0.00000000E+00  0.00000000E+00  0.00000000E+00
  0.00000000E+00  0.00000000E+00  0.00000000E+00
  0.00000000E+00  0.00000000E+00  0.00000000E+00
  0.00000000E+00  0.00000000E+00  0.00000000E+00
  0.00000000E+00  0.00000000E+00  0.00000000E+00
  0.00000000E+00  0.00000000E+00  0.00000000E+00
  0.00000000E+00  0.00000000E+00  0.00000000E+00
  0.00000000E+00  0.00000000E+00  0.00000000E+00
  0.00000000E+00  0.00000000E+00  0.00000000E+00
  0.00000000E+00  0.00000000E+00  0.00000000E+00
  0.00000000E+00  0.00000000E+00  0.00000000E+00
  0.00000000E+00  0.00000000E+00  0.00000000E+00
  0.00000000E+00  0.00000000E+00  0.00000000E+00
  0.00000000E+00  0.00000000E+00  0.00000000E+00
  0.00000000E+00  0.00000000E+00  0.00000000E+00
  0.00000000E+00  0.00000000E+00  0.00000000E+00
  0.00000000E+00  0.00000000E+00  0.00000000E+00
  0.00000000E+00  0.00000000E+00  0.00000000E+00
  0.00000000E+00  0.00000000E+00  0.00000000E+00
