B N C F O H                             
   1.00000000000000     
     7.5365500000000001  -13.0536999999999992    0.0000000000000000
     7.5365500000000001   13.0536999999999992    0.0000000000000000
     0.0000000000000000    0.0000000000000000   45.0000000000000000
   B    N    C    F    O    H 
    36    36     8    15     2     1
Selective dynamics
Direct
  0.1094843400825119  0.0525466415556297  0.3830173461252763   T   T   T
  0.1094838749214526  0.2192149635756714  0.3830509619754033   T   T   T
  0.1094713374813891  0.3858750370581845  0.3830986687160060   T   T   T
  0.1094613702844523  0.5525266372052680  0.3830807525623709   T   T   T
  0.1094689017205836  0.7191931740484254  0.3830078611478197   T   T   T
  0.1094745202695951  0.8858710737290634  0.3829713174073500   T   T   T
  0.2761494889117155  0.0525471367449031  0.3830031187345018   T   T   T
  0.2761669605631801  0.2192204035729761  0.3829253714136505   T   T   T
  0.2761522657051469  0.3858665784092001  0.3829733789127925   T   T   T
  0.2761319828149582  0.5525244370982318  0.3830799253765777   T   T   T
  0.2761358457995011  0.7191987188551491  0.3830971267273061   T   T   T
  0.2761442537034015  0.8858702765714346  0.3830601929623046   T   T   T
  0.4428152370354565  0.0525472587891671  0.3830139995388076   T   T   T
  0.4428148981801565  0.2192156133940165  0.3827492098778960   T   T   T
  0.4428877870317738  0.3858817418955103  0.3822428153528967   T   T   T
  0.4427832786225923  0.5525008111057578  0.3827382701494566   T   T   T
  0.4427990865087406  0.7191927224765841  0.3830391009748952   T   T   T
  0.4428119227836134  0.8858686338095343  0.3830818544991388   T   T   T
  0.6094696437771074  0.0525501867360932  0.3830514038655381   T   T   T
  0.6094579899008288  0.2192380048684391  0.3828681680830208   T   T   T
  0.6093991678627918  0.3859245394100401  0.3821506172625652   T   T   T
  0.6093945426522550  0.5523304422722441  0.3819024470996567   T   T   T
  0.6094437743350268  0.7191692104617441  0.3826714170110345   T   T   T
  0.6094719979894682  0.8858627927631331  0.3830113296690363   T   T   T
  0.7761426527350758  0.0525476701404136  0.3830301136087018   T   T   T
  0.7761296500681940  0.2192206866148388  0.3830115708974059   T   T   T
  0.7760872990909501  0.3858888969830502  0.3827710575637125   T   T   T
  0.7760831860359849  0.5524921340009527  0.3823425553226041   T   T   T
  0.7761602026447985  0.7191983648571294  0.3822559970780376   T   T   T
  0.7761367997629830  0.8858763738092074  0.3828188359936398   T   T   T
  0.9428095355967857  0.0525486728935329  0.3829971507079624   T   T   T
  0.9428047227388765  0.2192152105290397  0.3830679622955298   T   T   T
  0.9427871152114333  0.3858763406570623  0.3830299664411050   T   T   T
  0.9427800092097254  0.5525261201335644  0.3828865050338586   T   T   T
  0.9428021222684448  0.7191856334016937  0.3827149618057995   T   T   T
  0.9428122278175795  0.8858755845538454  0.3827984197812180   T   T   T
  0.0539120207673941  0.1080851144109236  0.3830299986216740   T   T   T
  0.0539139325091974  0.2747586138129642  0.3830818117398863   T   T   T
  0.0539051637254121  0.4414183580199363  0.3830837170325305   T   T   T
  0.0539005158229805  0.6080786084123935  0.3830102838129758   T   T   T
  0.0539076868048805  0.7747483518966527  0.3829235151410400   T   T   T
  0.0539101914791286  0.9414177367376896  0.3829508252687491   T   T   T
  0.2205850891459168  0.1080933057824811  0.3830115402516446   T   T   T
  0.2205978372796124  0.2747639276443044  0.3829954626133177   T   T   T
  0.2205917767829554  0.4414170950237281  0.3830877268478048   T   T   T
  0.2205799338124061  0.6080804974585594  0.3831054763906195   T   T   T
  0.2205796159182015  0.7747473278970104  0.3830707185689051   T   T   T
  0.2205763918638944  0.9414146049110518  0.3830280194281525   T   T   T
  0.3872539565774399  0.1080910602407340  0.3829504806473280   T   T   T
  0.3872532085012686  0.2747546419386052  0.3826817114457890   T   T   T
  0.3872697066088292  0.4414170393541794  0.3827263247925569   T   T   T
  0.3872584011393194  0.6080720581538365  0.3830056321305553   T   T   T
  0.3872496893999174  0.7747439566231377  0.3830969252584908   T   T   T
  0.3872545454967867  0.9414129120826014  0.3830663079677822   T   T   T
  0.5539188223852856  0.1081043603860549  0.3830055632925927   T   T   T
  0.5539077128997277  0.2747831780404849  0.3826404576725382   T   T   T
  0.5538280208488053  0.4413507293705654  0.3813828293738446   T   T   T
  0.5539196807388265  0.6080160541080879  0.3825300920712196   T   T   T
  0.5539156605685794  0.7747218416041917  0.3829578255228989   T   T   T
  0.5539194155903179  0.9414113105266565  0.3830655449286054   T   T   T
  0.7205805196910530  0.1080875657002053  0.3830449288825881   T   T   T
  0.7205668493719491  0.2747701326792848  0.3828974772428855   T   T   T
  0.7205296191177841  0.4414265888575620  0.3824111983829069   T   T   T
  0.7205367067963175  0.6080837361189614  0.3820091853451207   T   T   T
  0.7205559979919179  0.7747094567283289  0.3825714976521954   T   T   T
  0.7205805478347279  0.9414103623234824  0.3829746490545137   T   T   T
  0.8872447544696183  0.1080866506551082  0.3830385003627689   T   T   T
  0.8872417195686952  0.2747576538264367  0.3830461609714468   T   T   T
  0.8872163000149769  0.4414214401561264  0.3829225660943997   T   T   T
  0.8872041594069267  0.6080724811239133  0.3826900453119640   T   T   T
  0.8872362487993809  0.7747429283874188  0.3825702109400142   T   T   T
  0.8872385146933327  0.9414136500589858  0.3828798529953771   T   T   T
  0.4458366563710377  0.4761219861262150  0.5983797800485720   T   T   T
  0.4990378171060474  0.5456193459277274  0.5710914872918820   T   T   T
  0.4626524658097228  0.5375226120881499  0.6275879211030910   T   T   T
  0.4582667503131282  0.4907767269246808  0.5406914909000492   T   T   T
  0.5345427298910971  0.5456068583494833  0.5149363924214092   T   T   T
  0.4891554092619754  0.5144008818492469  0.4831966014044423   T   T   T
  0.4425104569658471  0.4732551018131894  0.6562365205969435   T   T   T
  0.5761561273705520  0.5408173845373018  0.4607633540599386   T   T   T
  0.3439888640443892  0.4201041478023267  0.5930504024551548   T   T   T
  0.4830890221749313  0.4117186022510415  0.6020587717003524   T   T   T
  0.4846469375453391  0.6272281021287835  0.5723522361123411   T   T   T
  0.6005969946882423  0.5791287416400004  0.5728037817151518   T   T   T
  0.4404204202086759  0.3936840932720566  0.5429059846500995   T   T   T
  0.3691038856830270  0.4878651375603162  0.5343918231996547   T   T   T
  0.5742536948868922  0.6478856093082317  0.5181713915395274   T   T   T
  0.6116655897947109  0.5239941461819480  0.5171308681275683   T   T   T
  0.5606119412112371  0.6158401835718326  0.6286386650511835   T   T   T
  0.3989860809366362  0.5762672723246685  0.6277132061019790   T   T   T
  0.4228567465435366  0.4122411276634525  0.4827630237800787   T   T   T
  0.4368378474539771  0.5633601102332747  0.4764340897343594   T   T   T
  0.3523499768252047  0.3860460049823230  0.6543042845504276   T   T   T
  0.5167266256687497  0.4507503015887634  0.6607147157534982   T   T   T
  0.4400489218477943  0.5274212436162666  0.6794561971361300   T   T   T
  0.6321192934469808  0.6408349431524344  0.4580061640786131   T   T   T
  0.5890952364447781  0.4757755183075481  0.4494207382043723   T   T   T
  0.6955622747341688  0.6615218284125189  0.4470754300396874   T   T   T
 
  0.00000000E+00  0.00000000E+00  0.00000000E+00
  0.00000000E+00  0.00000000E+00  0.00000000E+00
  0.00000000E+00  0.00000000E+00  0.00000000E+00
  0.00000000E+00  0.00000000E+00  0.00000000E+00
  0.00000000E+00  0.00000000E+00  0.00000000E+00
  0.00000000E+00  0.00000000E+00  0.00000000E+00
  0.00000000E+00  0.00000000E+00  0.00000000E+00
  0.00000000E+00  0.00000000E+00  0.00000000E+00
  0.00000000E+00  0.00000000E+00  0.00000000E+00
  0.00000000E+00  0.00000000E+00  0.00000000E+00
  0.00000000E+00  0.00000000E+00  0.00000000E+00
  0.00000000E+00  0.00000000E+00  0.00000000E+00
  0.00000000E+00  0.00000000E+00  0.00000000E+00
  0.00000000E+00  0.00000000E+00  0.00000000E+00
  0.00000000E+00  0.00000000E+00  0.00000000E+00
  0.00000000E+00  0.00000000E+00  0.00000000E+00
  0.00000000E+00  0.00000000E+00  0.00000000E+00
  0.00000000E+00  0.00000000E+00  0.00000000E+00
  0.00000000E+00  0.00000000E+00  0.00000000E+00
  0.00000000E+00  0.00000000E+00  0.00000000E+00
  0.00000000E+00  0.00000000E+00  0.00000000E+00
  0.00000000E+00  0.00000000E+00  0.00000000E+00
  0.00000000E+00  0.00000000E+00  0.00000000E+00
  0.00000000E+00  0.00000000E+00  0.00000000E+00
  0.00000000E+00  0.00000000E+00  0.00000000E+00
  0.00000000E+00  0.00000000E+00  0.00000000E+00
  0.00000000E+00  0.00000000E+00  0.00000000E+00
  0.00000000E+00  0.00000000E+00  0.00000000E+00
  0.00000000E+00  0.00000000E+00  0.00000000E+00
  0.00000000E+00  0.00000000E+00  0.00000000E+00
  0.00000000E+00  0.00000000E+00  0.00000000E+00
  0.00000000E+00  0.00000000E+00  0.00000000E+00
  0.00000000E+00  0.00000000E+00  0.00000000E+00
  0.00000000E+00  0.00000000E+00  0.00000000E+00
  0.00000000E+00  0.00000000E+00  0.00000000E+00
  0.00000000E+00  0.00000000E+00  0.00000000E+00
  0.00000000E+00  0.00000000E+00  0.00000000E+00
  0.00000000E+00  0.00000000E+00  0.00000000E+00
  0.00000000E+00  0.00000000E+00  0.00000000E+00
  0.00000000E+00  0.00000000E+00  0.00000000E+00
  0.00000000E+00  0.00000000E+00  0.00000000E+00
  0.00000000E+00  0.00000000E+00  0.00000000E+00
  0.00000000E+00  0.00000000E+00  0.00000000E+00
  0.00000000E+00  0.00000000E+00  0.00000000E+00
  0.00000000E+00  0.00000000E+00  0.00000000E+00
  0.00000000E+00  0.00000000E+00  0.00000000E+00
  0.00000000E+00  0.00000000E+00  0.00000000E+00
  0.00000000E+00  0.00000000E+00  0.00000000E+00
  0.00000000E+00  0.00000000E+00  0.00000000E+00
  0.00000000E+00  0.00000000E+00  0.00000000E+00
  0.00000000E+00  0.00000000E+00  0.00000000E+00
  0.00000000E+00  0.00000000E+00  0.00000000E+00
  0.00000000E+00  0.00000000E+00  0.00000000E+00
  0.00000000E+00  0.00000000E+00  0.00000000E+00
  0.00000000E+00  0.00000000E+00  0.00000000E+00
  0.00000000E+00  0.00000000E+00  0.00000000E+00
  0.00000000E+00  0.00000000E+00  0.00000000E+00
  0.00000000E+00  0.00000000E+00  0.00000000E+00
  0.00000000E+00  0.00000000E+00  0.00000000E+00
  0.00000000E+00  0.00000000E+00  0.00000000E+00
  0.00000000E+00  0.00000000E+00  0.00000000E+00
  0.00000000E+00  0.00000000E+00  0.00000000E+00
  0.00000000E+00  0.00000000E+00  0.00000000E+00
  0.00000000E+00  0.00000000E+00  0.00000000E+00
  0.00000000E+00  0.00000000E+00  0.00000000E+00
  0.00000000E+00  0.00000000E+00  0.00000000E+00
  0.00000000E+00  0.00000000E+00  0.00000000E+00
  0.00000000E+00  0.00000000E+00  0.00000000E+00
  0.00000000E+00  0.00000000E+00  0.00000000E+00
  0.00000000E+00  0.00000000E+00  0.00000000E+00
  0.00000000E+00  0.00000000E+00  0.00000000E+00
  0.00000000E+00  0.00000000E+00  0.00000000E+00
  0.00000000E+00  0.00000000E+00  0.00000000E+00
  0.00000000E+00  0.00000000E+00  0.00000000E+00
  0.00000000E+00  0.00000000E+00  0.00000000E+00
  0.00000000E+00  0.00000000E+00  0.00000000E+00
  0.00000000E+00  0.00000000E+00  0.00000000E+00
  0.00000000E+00  0.00000000E+00  0.00000000E+00
  0.00000000E+00  0.00000000E+00  0.00000000E+00
  0.00000000E+00  0.00000000E+00  0.00000000E+00
  0.00000000E+00  0.00000000E+00  0.00000000E+00
  0.00000000E+00  0.00000000E+00  0.00000000E+00
  0.00000000E+00  0.00000000E+00  0.00000000E+00
  0.00000000E+00  0.00000000E+00  0.00000000E+00
  0.00000000E+00  0.00000000E+00  0.00000000E+00
  0.00000000E+00  0.00000000E+00  0.00000000E+00
  0.00000000E+00  0.00000000E+00  0.00000000E+00
  0.00000000E+00  0.00000000E+00  0.00000000E+00
  0.00000000E+00  0.00000000E+00  0.00000000E+00
  0.00000000E+00  0.00000000E+00  0.00000000E+00
  0.00000000E+00  0.00000000E+00  0.00000000E+00
  0.00000000E+00  0.00000000E+00  0.00000000E+00
  0.00000000E+00  0.00000000E+00  0.00000000E+00
  0.00000000E+00  0.00000000E+00  0.00000000E+00
  0.00000000E+00  0.00000000E+00  0.00000000E+00
  0.00000000E+00  0.00000000E+00  0.00000000E+00
  0.00000000E+00  0.00000000E+00  0.00000000E+00
  0.00000000E+00  0.00000000E+00  0.00000000E+00
