B N C F O                               
   1.00000000000000     
     7.5365500000000001  -13.0536999999999992    0.0000000000000000
     7.5365500000000001   13.0536999999999992    0.0000000000000000
     0.0000000000000000    0.0000000000000000   45.0000000000000000
   B    N    C    F    O 
    36    36     8    15     2
Selective dynamics
Direct
  0.1095900058925428  0.0525270226757565  0.3793229892238775   T   T   T
  0.1096024965388372  0.2191997468248362  0.3793956906506172   T   T   T
  0.1096034635217004  0.3858677766097985  0.3793865948509641   T   T   T
  0.1095957298872069  0.5525324539091808  0.3793378358687294   T   T   T
  0.1095857402347189  0.7191910023640103  0.3793104502166113   T   T   T
  0.1095858037422069  0.8858579602393447  0.3792870556846907   T   T   T
  0.2762588772997512  0.0525352229290132  0.3793269115555316   T   T   T
  0.2762807373640462  0.2192093413939456  0.3793646732637156   T   T   T
  0.2762914011114410  0.3858754368027692  0.3794042197451500   T   T   T
  0.2762813190889901  0.5525319994886284  0.3793856629130867   T   T   T
  0.2762669559084777  0.7191941610670790  0.3793584360327953   T   T   T
  0.2762537184246135  0.8858568720322896  0.3793366671959635   T   T   T
  0.4429157374519414  0.0525279385888772  0.3793625548725664   T   T   T
  0.4429399979181339  0.2192143663522013  0.3793247637716908   T   T   T
  0.4429982372815199  0.3858972992211258  0.3792856439236391   T   T   T
  0.4429819477899783  0.5525423787711256  0.3793459726121186   T   T   T
  0.4429433058772295  0.7191899654161925  0.3793660525984734   T   T   T
  0.4429228963551546  0.8858586775571766  0.3793862089771254   T   T   T
  0.6095772761675877  0.0525225251759197  0.3793506698420218   T   T   T
  0.6095795558542746  0.2192135396755513  0.3793097620544717   T   T   T
  0.6095830599564130  0.3859149006200590  0.3792358777113644   T   T   T
  0.6096370658495958  0.5525168593472437  0.3792581118141118   T   T   T
  0.6096097022340451  0.7191592817910928  0.3793246155553839   T   T   T
  0.6095907543709880  0.8858442653317159  0.3793552369035299   T   T   T
  0.7762537266726012  0.0525211424429474  0.3793113083789341   T   T   T
  0.7762425089875870  0.2191970613097885  0.3792933678903014   T   T   T
  0.7762298576644016  0.3858805085491614  0.3792496914442268   T   T   T
  0.7762081611226949  0.5525261999750682  0.3792131900475484   T   T   T
  0.7762178804465425  0.7191350130785197  0.3792419034839787   T   T   T
  0.7762429563981984  0.8858253517523834  0.3792981477356123   T   T   T
  0.9429184301086133  0.0525185330620102  0.3793247610029057   T   T   T
  0.9429208815419425  0.2191940666800411  0.3793376618904870   T   T   T
  0.9429201001804705  0.3858687808791343  0.3792911154497510   T   T   T
  0.9429081744418052  0.5525300355299865  0.3792810643556814   T   T   T
  0.9429063343007152  0.7191814056149954  0.3792875606307846   T   T   T
  0.9429087234726855  0.8858373198109054  0.3792933521407886   T   T   T
  0.0540293516364188  0.1080701318068283  0.3793515250064700   T   T   T
  0.0540309487921245  0.2747365181652439  0.3793978098661887   T   T   T
  0.0540327810034822  0.4414002764578764  0.3793293349240173   T   T   T
  0.0540279415477702  0.6080622181049757  0.3793083419395722   T   T   T
  0.0540317871012854  0.7747331333305787  0.3792827856439041   T   T   T
  0.0540291298237534  0.9414020319604653  0.3792794475504170   T   T   T
  0.2206944157357260  0.1080740446481474  0.3793398482385361   T   T   T
  0.2206996316254837  0.2747401840202193  0.3794048684904857   T   T   T
  0.2206983251717944  0.4414001749522862  0.3794132956637447   T   T   T
  0.2207030986620218  0.6080682489938050  0.3793648758642812   T   T   T
  0.2206940066403143  0.7747289362137527  0.3793277223017855   T   T   T
  0.2206933144897731  0.9414010040049339  0.3792991088164267   T   T   T
  0.3873497766615996  0.1080635752690205  0.3793392068484759   T   T   T
  0.3873665674328930  0.2747356345715921  0.3793209809521355   T   T   T
  0.3873743013706539  0.4414041788695650  0.3793536607725604   T   T   T
  0.3873716212087906  0.6080659972374436  0.3793613198835284   T   T   T
  0.3873613775639927  0.7747286282461813  0.3793770448172381   T   T   T
  0.3873530370353644  0.9413962815034269  0.3793818052814750   T   T   T
  0.5540166218691204  0.1080652366520299  0.3793486313029940   T   T   T
  0.5540232678846018  0.2747406545753840  0.3792876760493242   T   T   T
  0.5540180867612736  0.4413968296826383  0.3791225446997373   T   T   T
  0.5540415011172272  0.6080590427998855  0.3792788557196286   T   T   T
  0.5540339873559967  0.7747275634161170  0.3793469012004050   T   T   T
  0.5540210255255833  0.9413954838229156  0.3793779601842476   T   T   T
  0.7206837154501213  0.1080623268827304  0.3793168555976801   T   T   T
  0.7206854218310569  0.2747316905277352  0.3792682740327039   T   T   T
  0.7206931222597392  0.4414014026463938  0.3791960874930718   T   T   T
  0.7207114879420925  0.6080718724935398  0.3790912622448601   T   T   T
  0.7207043457085834  0.7747352530279616  0.3792653043372491   T   T   T
  0.7206933682470723  0.9413998947131942  0.3793106583358730   T   T   T
  0.8873616472970068  0.1080734574163823  0.3793163092563335   T   T   T
  0.8873522248039201  0.2747320929437016  0.3792911841632856   T   T   T
  0.8873597649382428  0.4413958513923691  0.3792479291328658   T   T   T
  0.8873597294969429  0.6080629064337117  0.3792731674376807   T   T   T
  0.8873636010404371  0.7747312608459528  0.3792821036957317   T   T   T
  0.8873631136477524  0.9414029548231247  0.3792882015159043   T   T   T
  0.4363041591719701  0.4743563792487603  0.6076649544715462   T   T   T
  0.4966143887379892  0.5470289258427298  0.5815337043059984   T   T   T
  0.4403603688891138  0.5317682953091405  0.6367457189778635   T   T   T
  0.4674832462392156  0.4938254521180274  0.5505774589222328   T   T   T
  0.5496189395958545  0.5513759629571056  0.5262890023981447   T   T   T
  0.5135500955443334  0.5197239242515924  0.4939103006803224   T   T   T
  0.4130435082107930  0.4647393758422108  0.6650854733832662   T   T   T
  0.6056804951962623  0.5511872073807905  0.4722203416618465   T   T   T
  0.3369867371950500  0.4154180168795309  0.5995901495848819   T   T   T
  0.4758110226431901  0.4127660559863331  0.6132448251608047   T   T   T
  0.4779242873641427  0.6260416221691005  0.5815039843025680   T   T   T
  0.5977833575734243  0.5842454281607542  0.5863654837854235   T   T   T
  0.4530291194972419  0.3980030495447480  0.5536233888577019   T   T   T
  0.3780652125130631  0.4866546199873635  0.5419183394197461   T   T   T
  0.5847669736724809  0.6531765619115371  0.5296696449791441   T   T   T
  0.6286309172272390  0.5339953319788030  0.5315003393978203   T   T   T
  0.5358979735085596  0.6127467367005665  0.6403973803435011   T   T   T
  0.3734834335927604  0.5663297441595724  0.6345299914041032   T   T   T
  0.4470795740417247  0.4160446845916482  0.4939092367318991   T   T   T
  0.4572974389738161  0.5644556573580710  0.4858126106455385   T   T   T
  0.3262183500262703  0.3755378627286740  0.6608633817421069   T   T   T
  0.4881987256415573  0.4459442257634975  0.6722007585018489   T   T   T
  0.3995292418185245  0.5144919803984944  0.6876901231781339   T   T   T
  0.6566820215958559  0.6454172907099188  0.4679288580316989   T   T   T
  0.6165868424278051  0.4796724609310200  0.4628925853348024   T   T   T
 
  0.00000000E+00  0.00000000E+00  0.00000000E+00
  0.00000000E+00  0.00000000E+00  0.00000000E+00
  0.00000000E+00  0.00000000E+00  0.00000000E+00
  0.00000000E+00  0.00000000E+00  0.00000000E+00
  0.00000000E+00  0.00000000E+00  0.00000000E+00
  0.00000000E+00  0.00000000E+00  0.00000000E+00
  0.00000000E+00  0.00000000E+00  0.00000000E+00
  0.00000000E+00  0.00000000E+00  0.00000000E+00
  0.00000000E+00  0.00000000E+00  0.00000000E+00
  0.00000000E+00  0.00000000E+00  0.00000000E+00
  0.00000000E+00  0.00000000E+00  0.00000000E+00
  0.00000000E+00  0.00000000E+00  0.00000000E+00
  0.00000000E+00  0.00000000E+00  0.00000000E+00
  0.00000000E+00  0.00000000E+00  0.00000000E+00
  0.00000000E+00  0.00000000E+00  0.00000000E+00
  0.00000000E+00  0.00000000E+00  0.00000000E+00
  0.00000000E+00  0.00000000E+00  0.00000000E+00
  0.00000000E+00  0.00000000E+00  0.00000000E+00
  0.00000000E+00  0.00000000E+00  0.00000000E+00
  0.00000000E+00  0.00000000E+00  0.00000000E+00
  0.00000000E+00  0.00000000E+00  0.00000000E+00
  0.00000000E+00  0.00000000E+00  0.00000000E+00
  0.00000000E+00  0.00000000E+00  0.00000000E+00
  0.00000000E+00  0.00000000E+00  0.00000000E+00
  0.00000000E+00  0.00000000E+00  0.00000000E+00
  0.00000000E+00  0.00000000E+00  0.00000000E+00
  0.00000000E+00  0.00000000E+00  0.00000000E+00
  0.00000000E+00  0.00000000E+00  0.00000000E+00
  0.00000000E+00  0.00000000E+00  0.00000000E+00
  0.00000000E+00  0.00000000E+00  0.00000000E+00
  0.00000000E+00  0.00000000E+00  0.00000000E+00
  0.00000000E+00  0.00000000E+00  0.00000000E+00
  0.00000000E+00  0.00000000E+00  0.00000000E+00
  0.00000000E+00  0.00000000E+00  0.00000000E+00
  0.00000000E+00  0.00000000E+00  0.00000000E+00
  0.00000000E+00  0.00000000E+00  0.00000000E+00
  0.00000000E+00  0.00000000E+00  0.00000000E+00
  0.00000000E+00  0.00000000E+00  0.00000000E+00
  0.00000000E+00  0.00000000E+00  0.00000000E+00
  0.00000000E+00  0.00000000E+00  0.00000000E+00
  0.00000000E+00  0.00000000E+00  0.00000000E+00
  0.00000000E+00  0.00000000E+00  0.00000000E+00
  0.00000000E+00  0.00000000E+00  0.00000000E+00
  0.00000000E+00  0.00000000E+00  0.00000000E+00
  0.00000000E+00  0.00000000E+00  0.00000000E+00
  0.00000000E+00  0.00000000E+00  0.00000000E+00
  0.00000000E+00  0.00000000E+00  0.00000000E+00
  0.00000000E+00  0.00000000E+00  0.00000000E+00
  0.00000000E+00  0.00000000E+00  0.00000000E+00
  0.00000000E+00  0.00000000E+00  0.00000000E+00
  0.00000000E+00  0.00000000E+00  0.00000000E+00
  0.00000000E+00  0.00000000E+00  0.00000000E+00
  0.00000000E+00  0.00000000E+00  0.00000000E+00
  0.00000000E+00  0.00000000E+00  0.00000000E+00
  0.00000000E+00  0.00000000E+00  0.00000000E+00
  0.00000000E+00  0.00000000E+00  0.00000000E+00
  0.00000000E+00  0.00000000E+00  0.00000000E+00
  0.00000000E+00  0.00000000E+00  0.00000000E+00
  0.00000000E+00  0.00000000E+00  0.00000000E+00
  0.00000000E+00  0.00000000E+00  0.00000000E+00
  0.00000000E+00  0.00000000E+00  0.00000000E+00
  0.00000000E+00  0.00000000E+00  0.00000000E+00
  0.00000000E+00  0.00000000E+00  0.00000000E+00
  0.00000000E+00  0.00000000E+00  0.00000000E+00
  0.00000000E+00  0.00000000E+00  0.00000000E+00
  0.00000000E+00  0.00000000E+00  0.00000000E+00
  0.00000000E+00  0.00000000E+00  0.00000000E+00
  0.00000000E+00  0.00000000E+00  0.00000000E+00
  0.00000000E+00  0.00000000E+00  0.00000000E+00
  0.00000000E+00  0.00000000E+00  0.00000000E+00
  0.00000000E+00  0.00000000E+00  0.00000000E+00
  0.00000000E+00  0.00000000E+00  0.00000000E+00
  0.00000000E+00  0.00000000E+00  0.00000000E+00
  0.00000000E+00  0.00000000E+00  0.00000000E+00
  0.00000000E+00  0.00000000E+00  0.00000000E+00
  0.00000000E+00  0.00000000E+00  0.00000000E+00
  0.00000000E+00  0.00000000E+00  0.00000000E+00
  0.00000000E+00  0.00000000E+00  0.00000000E+00
  0.00000000E+00  0.00000000E+00  0.00000000E+00
  0.00000000E+00  0.00000000E+00  0.00000000E+00
  0.00000000E+00  0.00000000E+00  0.00000000E+00
  0.00000000E+00  0.00000000E+00  0.00000000E+00
  0.00000000E+00  0.00000000E+00  0.00000000E+00
  0.00000000E+00  0.00000000E+00  0.00000000E+00
  0.00000000E+00  0.00000000E+00  0.00000000E+00
  0.00000000E+00  0.00000000E+00  0.00000000E+00
  0.00000000E+00  0.00000000E+00  0.00000000E+00
  0.00000000E+00  0.00000000E+00  0.00000000E+00
  0.00000000E+00  0.00000000E+00  0.00000000E+00
  0.00000000E+00  0.00000000E+00  0.00000000E+00
  0.00000000E+00  0.00000000E+00  0.00000000E+00
  0.00000000E+00  0.00000000E+00  0.00000000E+00
  0.00000000E+00  0.00000000E+00  0.00000000E+00
  0.00000000E+00  0.00000000E+00  0.00000000E+00
  0.00000000E+00  0.00000000E+00  0.00000000E+00
  0.00000000E+00  0.00000000E+00  0.00000000E+00
  0.00000000E+00  0.00000000E+00  0.00000000E+00
