B N C F O                               
   1.00000000000000     
     7.5365500567000003  -13.0537460594369996    0.0000000000000000
     7.5365500567000003   13.0537460594369996    0.0000000000000000
     0.0000000000000000    0.0000000000000000   35.1146643855649998
   B    N    C    F    O 
    36    36     3     5     2
Selective dynamics
Direct
  0.1111056298147857  0.0555526569078790  0.5000109752077405   T   T   T
  0.1111017025807891  0.2222193180286934  0.4999814020712464   T   T   T
  0.1111114822650766  0.3888899423562698  0.4999426859944659   T   T   T
  0.1111128194720561  0.5555542028390310  0.4999803340353375   T   T   T
  0.1111115368186246  0.7222208974693489  0.5000141589503981   T   T   T
  0.1111106134112398  0.8888881970015122  0.5000201975138829   T   T   T
  0.2777780673629167  0.0555518300289917  0.5000180186735719   T   T   T
  0.2777706742530672  0.2222133042888216  0.4999707732704947   T   T   T
  0.2777718282942435  0.3888993514474759  0.4998921327447518   T   T   T
  0.2777791104465417  0.5555549754384826  0.4999242909462340   T   T   T
  0.2777777959323194  0.7222191718636791  0.4999897485043954   T   T   T
  0.2777777377516215  0.8888869411610527  0.5000208952512114   T   T   T
  0.4444457657345705  0.0555535795326241  0.5000229225873022   T   T   T
  0.4444478490121448  0.2222177480352556  0.5000105628642960   T   T   T
  0.4444509087337067  0.3888982588429225  0.4999321962097393   T   T   T
  0.4444427987136740  0.5555568341807128  0.4999261651037713   T   T   T
  0.4444441494607519  0.7222187908880193  0.4999671038974585   T   T   T
  0.4444444431423094  0.8888861137426571  0.5000104866345790   T   T   T
  0.6111111170471750  0.0555538238534992  0.5000174575189691   T   T   T
  0.6111122852769364  0.2222205547199265  0.5000183727900785   T   T   T
  0.6111120523932332  0.3888900106981378  0.4999949812752856   T   T   T
  0.6111082376612627  0.5555575724180750  0.4999681487610875   T   T   T
  0.6111070277816683  0.7222187949466565  0.4999770940591264   T   T   T
  0.6111098525399090  0.8888858018385709  0.5000050068017129   T   T   T
  0.7777779362570989  0.0555543734163043  0.5000158402584109   T   T   T
  0.7777782732074235  0.2222220604685786  0.5000148031442202   T   T   T
  0.7777774354456349  0.3888892738684820  0.5000169916141759   T   T   T
  0.7777753210987158  0.5555549708991736  0.5000057127867391   T   T   T
  0.7777745103461651  0.7222199632783703  0.5000031538390451   T   T   T
  0.7777753967756066  0.8888860161601557  0.5000137592415586   T   T   T
  0.9444421362582164  0.0555546662366222  0.5000137195302092   T   T   T
  0.9444442094673984  0.2222217288551756  0.4999971509149683   T   T   T
  0.9444463082756814  0.3888895836272871  0.5000013560665856   T   T   T
  0.9444443138335497  0.5555551179619559  0.5000157949149641   T   T   T
  0.9444431340571097  0.7222208671454499  0.5000174989442063   T   T   T
  0.9444428960483312  0.8888874664617514  0.5000196199737359   T   T   T
  0.0555551057927096  0.1111113952064038  0.4999997091174636   T   T   T
  0.0555557340039347  0.2777777984410401  0.4999629224534909   T   T   T
  0.0555549864441530  0.4444438440134582  0.4999677776309919   T   T   T
  0.0555556890378271  0.6111102206745188  0.5000045214692004   T   T   T
  0.0555553643824077  0.7777769705519720  0.5000167276106913   T   T   T
  0.0555547618693317  0.9444436743200963  0.5000164088956012   T   T   T
  0.2222213436002619  0.1111096154107268  0.5000021772081857   T   T   T
  0.2222254619646901  0.2777804524789940  0.4999529261395159   T   T   T
  0.2222198662963871  0.4444454149722022  0.4998699325996926   T   T   T
  0.2222226497668681  0.6111103163004864  0.4999553385133067   T   T   T
  0.2222225725975641  0.7777767895577240  0.5000101268161491   T   T   T
  0.2222223137711666  0.9444433779765756  0.5000194435955679   T   T   T
  0.3888889797209888  0.1111110185571617  0.5000188162971547   T   T   T
  0.3888854979554623  0.2777795223002520  0.4999838983954478   T   T   T
  0.3888791816077983  0.4444336782145915  0.4998820793691686   T   T   T
  0.3888886096320807  0.6111077416591050  0.4999163390327013   T   T   T
  0.3888890625876952  0.7777762545120603  0.4999858198377520   T   T   T
  0.3888892112198091  0.9444435713130926  0.5000193183046601   T   T   T
  0.5555557467544745  0.1111103627778818  0.5000174585891848   T   T   T
  0.5555536532681508  0.2777768314127338  0.5000083006320839   T   T   T
  0.5555528184704024  0.4444427062636988  0.4999530190094768   T   T   T
  0.5555493072682515  0.6111066947772429  0.4999386428598852   T   T   T
  0.5555548945479096  0.7777768405432898  0.4999768979655286   T   T   T
  0.5555554247739117  0.9444433769398956  0.5000103150798825   T   T   T
  0.7222222544312680  0.1111105449420969  0.5000133647881341   T   T   T
  0.7222218605580912  0.2777771876140621  0.5000156219001329   T   T   T
  0.7222214234345350  0.4444435978915537  0.5000035291441235   T   T   T
  0.7222196841504248  0.6111096093002873  0.4999867814334218   T   T   T
  0.7222198931806441  0.7777757453224577  0.4999959654226687   T   T   T
  0.7222217704171755  0.9444433915986140  0.5000119277947025   T   T   T
  0.8888883305776578  0.1111104206740599  0.5000081978966677   T   T   T
  0.8888889175593949  0.2777774036482682  0.5000018306380141   T   T   T
  0.8888884471935571  0.4444439086875547  0.5000144339117181   T   T   T
  0.8888879246646421  0.6111101302354824  0.5000138628922343   T   T   T
  0.8888875123654287  0.7777765376563931  0.5000133085172975   T   T   T
  0.8888879348803552  0.9444434828549311  0.5000175485441450   T   T   T
  0.3725192036151481  0.3135305724297442  0.6731391858471928   T   T   T
  0.3537292943349184  0.3166747299619313  0.6302832225442765   T   T   T
  0.3425590539248189  0.4093231617939113  0.6179506551708835   T   T   T
  0.4609133827371991  0.3958694041052075  0.6837781956125779   T   T   T
  0.3773804134506027  0.2292430415232135  0.6819497210040768   T   T   T
  0.2959210404726973  0.3118373568951547  0.6933229642259612   T   T   T
  0.4339011235126549  0.3174994880669382  0.6117961750879237   T   T   T
  0.2677041771061363  0.2264102304629006  0.6216056515957000   T   T   T
  0.4241987124963987  0.4911842469711970  0.6124794743496379   T   T   T
  0.2536231122814084  0.3942175148751757  0.6152432032187560   T   T   T
 
  0.00000000E+00  0.00000000E+00  0.00000000E+00
  0.00000000E+00  0.00000000E+00  0.00000000E+00
  0.00000000E+00  0.00000000E+00  0.00000000E+00
  0.00000000E+00  0.00000000E+00  0.00000000E+00
  0.00000000E+00  0.00000000E+00  0.00000000E+00
  0.00000000E+00  0.00000000E+00  0.00000000E+00
  0.00000000E+00  0.00000000E+00  0.00000000E+00
  0.00000000E+00  0.00000000E+00  0.00000000E+00
  0.00000000E+00  0.00000000E+00  0.00000000E+00
  0.00000000E+00  0.00000000E+00  0.00000000E+00
  0.00000000E+00  0.00000000E+00  0.00000000E+00
  0.00000000E+00  0.00000000E+00  0.00000000E+00
  0.00000000E+00  0.00000000E+00  0.00000000E+00
  0.00000000E+00  0.00000000E+00  0.00000000E+00
  0.00000000E+00  0.00000000E+00  0.00000000E+00
  0.00000000E+00  0.00000000E+00  0.00000000E+00
  0.00000000E+00  0.00000000E+00  0.00000000E+00
  0.00000000E+00  0.00000000E+00  0.00000000E+00
  0.00000000E+00  0.00000000E+00  0.00000000E+00
  0.00000000E+00  0.00000000E+00  0.00000000E+00
  0.00000000E+00  0.00000000E+00  0.00000000E+00
  0.00000000E+00  0.00000000E+00  0.00000000E+00
  0.00000000E+00  0.00000000E+00  0.00000000E+00
  0.00000000E+00  0.00000000E+00  0.00000000E+00
  0.00000000E+00  0.00000000E+00  0.00000000E+00
  0.00000000E+00  0.00000000E+00  0.00000000E+00
  0.00000000E+00  0.00000000E+00  0.00000000E+00
  0.00000000E+00  0.00000000E+00  0.00000000E+00
  0.00000000E+00  0.00000000E+00  0.00000000E+00
  0.00000000E+00  0.00000000E+00  0.00000000E+00
  0.00000000E+00  0.00000000E+00  0.00000000E+00
  0.00000000E+00  0.00000000E+00  0.00000000E+00
  0.00000000E+00  0.00000000E+00  0.00000000E+00
  0.00000000E+00  0.00000000E+00  0.00000000E+00
  0.00000000E+00  0.00000000E+00  0.00000000E+00
  0.00000000E+00  0.00000000E+00  0.00000000E+00
  0.00000000E+00  0.00000000E+00  0.00000000E+00
  0.00000000E+00  0.00000000E+00  0.00000000E+00
  0.00000000E+00  0.00000000E+00  0.00000000E+00
  0.00000000E+00  0.00000000E+00  0.00000000E+00
  0.00000000E+00  0.00000000E+00  0.00000000E+00
  0.00000000E+00  0.00000000E+00  0.00000000E+00
  0.00000000E+00  0.00000000E+00  0.00000000E+00
  0.00000000E+00  0.00000000E+00  0.00000000E+00
  0.00000000E+00  0.00000000E+00  0.00000000E+00
  0.00000000E+00  0.00000000E+00  0.00000000E+00
  0.00000000E+00  0.00000000E+00  0.00000000E+00
  0.00000000E+00  0.00000000E+00  0.00000000E+00
  0.00000000E+00  0.00000000E+00  0.00000000E+00
  0.00000000E+00  0.00000000E+00  0.00000000E+00
  0.00000000E+00  0.00000000E+00  0.00000000E+00
  0.00000000E+00  0.00000000E+00  0.00000000E+00
  0.00000000E+00  0.00000000E+00  0.00000000E+00
  0.00000000E+00  0.00000000E+00  0.00000000E+00
  0.00000000E+00  0.00000000E+00  0.00000000E+00
  0.00000000E+00  0.00000000E+00  0.00000000E+00
  0.00000000E+00  0.00000000E+00  0.00000000E+00
  0.00000000E+00  0.00000000E+00  0.00000000E+00
  0.00000000E+00  0.00000000E+00  0.00000000E+00
  0.00000000E+00  0.00000000E+00  0.00000000E+00
  0.00000000E+00  0.00000000E+00  0.00000000E+00
  0.00000000E+00  0.00000000E+00  0.00000000E+00
  0.00000000E+00  0.00000000E+00  0.00000000E+00
  0.00000000E+00  0.00000000E+00  0.00000000E+00
  0.00000000E+00  0.00000000E+00  0.00000000E+00
  0.00000000E+00  0.00000000E+00  0.00000000E+00
  0.00000000E+00  0.00000000E+00  0.00000000E+00
  0.00000000E+00  0.00000000E+00  0.00000000E+00
  0.00000000E+00  0.00000000E+00  0.00000000E+00
  0.00000000E+00  0.00000000E+00  0.00000000E+00
  0.00000000E+00  0.00000000E+00  0.00000000E+00
  0.00000000E+00  0.00000000E+00  0.00000000E+00
  0.00000000E+00  0.00000000E+00  0.00000000E+00
  0.00000000E+00  0.00000000E+00  0.00000000E+00
  0.00000000E+00  0.00000000E+00  0.00000000E+00
  0.00000000E+00  0.00000000E+00  0.00000000E+00
  0.00000000E+00  0.00000000E+00  0.00000000E+00
  0.00000000E+00  0.00000000E+00  0.00000000E+00
  0.00000000E+00  0.00000000E+00  0.00000000E+00
  0.00000000E+00  0.00000000E+00  0.00000000E+00
  0.00000000E+00  0.00000000E+00  0.00000000E+00
  0.00000000E+00  0.00000000E+00  0.00000000E+00
