B N C F O                               
   1.00000000000000     
     7.5365500567000003  -13.0537460594369996    0.0000000000000000
     7.5365500567000003   13.0537460594369996    0.0000000000000000
     0.0000000000000000    0.0000000000000000   35.1146643855649998
   B    N    C    F    O 
    36    36     3     5     2
Selective dynamics
Direct
  0.1111075192871240  0.0555586846462433  0.5000064253526872   F   F   F
  0.1111051185772496  0.2222253272905022  0.4999663175431763   F   F   F
  0.1111192365811959  0.3888923547820724  0.4999530813524729   F   F   F
  0.1111153683931505  0.5555546103286986  0.4999758639591079   F   F   F
  0.1111125895566474  0.7222228423453174  0.5000137575503061   F   F   F
  0.1111113155115078  0.8888915810138656  0.5000188557671734   F   F   F
  0.2777785635307879  0.0555572665628077  0.5000133200927053   F   F   F
  0.2777821499988491  0.2222334866845941  0.4999457103905769   F   F   F
  0.2777610438491749  0.3888940227968476  0.4998572896281601   F   F   F
  0.2777804995812403  0.5555578220473834  0.4999219212543480   F   F   F
  0.2777796754190689  0.7222190832355508  0.4999869025078283   F   F   F
  0.2777787354855761  0.8888890408543730  0.5000212127328680   F   F   F
  0.4444454100154687  0.0555567479847667  0.5000215176958775   F   F   F
  0.4444450801544946  0.2222252560438989  0.4999998296715944   F   F   F
  0.4444542100402913  0.3888992249391023  0.4999177921730364   F   F   F
  0.4444471624910165  0.5555636877993706  0.4999138816035114   F   F   F
  0.4444425096277840  0.7222151730588493  0.4999580801085344   F   F   F
  0.4444436218176619  0.8888851976199561  0.5000106421315564   F   F   F
  0.6111115744026208  0.0555558008669408  0.5000164141172903   F   F   F
  0.6111110996262425  0.2222244703248109  0.5000162021893999   F   F   F
  0.6111083196927964  0.3888932961440403  0.4999863157489628   F   F   F
  0.6111026130686525  0.5555587687277495  0.4999523604666436   F   F   F
  0.6111029756270199  0.7222153304158212  0.4999698863379010   F   F   F
  0.6111085842414781  0.8888844672058411  0.5000042683003443   F   F   F
  0.7777787249780772  0.0555565187625291  0.5000153612311209   F   F   F
  0.7777800421101517  0.2222252951388626  0.5000145423679925   F   F   F
  0.7777767528311372  0.3888928242215997  0.5000174771210482   F   F   F
  0.7777715044686033  0.5555570588388576  0.5000040340573264   F   F   F
  0.7777711028297389  0.7222200030433328  0.5000018016167829   F   F   F
  0.7777741774348641  0.8888857883737273  0.5000144102267754   F   F   F
  0.9444447691387694  0.0555584002235676  0.5000129134530198   F   F   F
  0.9444486936267538  0.2222266287064727  0.4999941563822929   F   F   F
  0.9444493577736282  0.3888926159653892  0.5000006744264738   F   F   F
  0.9444448873348961  0.5555573104250726  0.5000165192698205   F   F   F
  0.9444426392869758  0.7222235544608679  0.5000167055290134   F   F   F
  0.9444423588017798  0.8888900904907402  0.5000195785873274   F   F   F
  0.0555490896660515  0.1111087138976217  0.5000018297245390   F   F   F
  0.0555441741027209  0.2777737102177937  0.4999618057821351   F   F   F
  0.0555496492467000  0.4444455532812981  0.4999697980448516   F   F   F
  0.0555556142285951  0.6111129096553398  0.5000086794449317   F   F   F
  0.0555554551494666  0.7777793954598522  0.5000189924576404   F   F   F
  0.0555533690143832  0.9444449506219925  0.5000200942545519   F   F   F
  0.2222170363246860  0.1111035972444654  0.5000000798472612   F   F   F
  0.2222063392462275  0.2777618430757158  0.4999434869577968   F   F   F
  0.2222038774217481  0.4444503300942415  0.4998729214144220   F   F   F
  0.2222186884286259  0.6111199310265079  0.4999556042818512   F   F   F
  0.2222233145971515  0.7777793607395154  0.5000155985189281   F   F   F
  0.2222226161878140  0.9444446950036678  0.5000235489597884   F   F   F
  0.3888907783640221  0.1111108329148607  0.5000215256402782   F   F   F
  0.3888874164594185  0.2777678771493157  0.4999745135411189   F   F   F
  0.3888819732096565  0.4444376328040534  0.4998890428412111   F   F   F
  0.3888924673956780  0.6111284155463608  0.4999156907825295   F   F   F
  0.3888908763488672  0.7777821812157839  0.4999895639220142   F   F   F
  0.3888904478840018  0.9444454953707222  0.5000248897584001   F   F   F
  0.5555574098195351  0.1111122207000221  0.5000203298620178   F   F   F
  0.5555577516195811  0.2777767317250905  0.5000087410867735   F   F   F
  0.5555709436763152  0.4444483369116625  0.4999457537522645   F   F   F
  0.5555683649601733  0.6111260437416135  0.4999313268912431   F   F   F
  0.5555586716689760  0.7777846696173754  0.4999778299290227   F   F   F
  0.5555566294480485  0.9444462612745212  0.5000142423707956   F   F   F
  0.7222226764193707  0.1111128965778363  0.5000152377092419   F   F   F
  0.7222224819963969  0.2777791003038388  0.5000201188899354   F   F   F
  0.7222226285563309  0.4444458925861454  0.5000061901282251   F   F   F
  0.7222230875838846  0.6111148020033994  0.4999870939060145   F   F   F
  0.7222206905479922  0.7777794040799364  0.4999996383173695   F   F   F
  0.7222216637241914  0.9444459044715003  0.5000162716070307   F   F   F
  0.8888870902745794  0.1111124019710772  0.5000120427921999   F   F   F
  0.8888875962659455  0.2777789750832298  0.5000058717420828   F   F   F
  0.8888884111735109  0.4444460657392639  0.5000206128638993   F   F   F
  0.8888874574441559  0.6111128689929757  0.5000180065329118   F   F   F
  0.8888868460356534  0.7777788897642779  0.5000168402530463   F   F   F
  0.8888868355929631  0.9444452850897207  0.5000231010463168   F   F   F
  0.3736257725634644  0.3124946304600016  0.6730581980304962   F   F   F
  0.3552251183958717  0.3100856402801426  0.6300405198961911   T   T   T
  0.3422293945176094  0.4272979750961667  0.6165624562901399   T   T   T
  0.4620971689741964  0.3954203398270479  0.6825532063870838   F   F   F
  0.3779148838816937  0.2286595388510122  0.6833182028359914   F   F   F
  0.2969886131263380  0.3128376177803176  0.6921380883718271   F   F   F
  0.4336680636426919  0.3168342239632196  0.6104466052540971   F   F   F
  0.2687266722548074  0.2267489724778216  0.6202064089220656   F   F   F
  0.4289181629422814  0.4957053015885862  0.6128165023411825   T   T   T
  0.2517829581140703  0.3958594075149193  0.6153621450522417   T   T   T
 
  0.00000000E+00  0.00000000E+00  0.00000000E+00
  0.00000000E+00  0.00000000E+00  0.00000000E+00
  0.00000000E+00  0.00000000E+00  0.00000000E+00
  0.00000000E+00  0.00000000E+00  0.00000000E+00
  0.00000000E+00  0.00000000E+00  0.00000000E+00
  0.00000000E+00  0.00000000E+00  0.00000000E+00
  0.00000000E+00  0.00000000E+00  0.00000000E+00
  0.00000000E+00  0.00000000E+00  0.00000000E+00
  0.00000000E+00  0.00000000E+00  0.00000000E+00
  0.00000000E+00  0.00000000E+00  0.00000000E+00
  0.00000000E+00  0.00000000E+00  0.00000000E+00
  0.00000000E+00  0.00000000E+00  0.00000000E+00
  0.00000000E+00  0.00000000E+00  0.00000000E+00
  0.00000000E+00  0.00000000E+00  0.00000000E+00
  0.00000000E+00  0.00000000E+00  0.00000000E+00
  0.00000000E+00  0.00000000E+00  0.00000000E+00
  0.00000000E+00  0.00000000E+00  0.00000000E+00
  0.00000000E+00  0.00000000E+00  0.00000000E+00
  0.00000000E+00  0.00000000E+00  0.00000000E+00
  0.00000000E+00  0.00000000E+00  0.00000000E+00
  0.00000000E+00  0.00000000E+00  0.00000000E+00
  0.00000000E+00  0.00000000E+00  0.00000000E+00
  0.00000000E+00  0.00000000E+00  0.00000000E+00
  0.00000000E+00  0.00000000E+00  0.00000000E+00
  0.00000000E+00  0.00000000E+00  0.00000000E+00
  0.00000000E+00  0.00000000E+00  0.00000000E+00
  0.00000000E+00  0.00000000E+00  0.00000000E+00
  0.00000000E+00  0.00000000E+00  0.00000000E+00
  0.00000000E+00  0.00000000E+00  0.00000000E+00
  0.00000000E+00  0.00000000E+00  0.00000000E+00
  0.00000000E+00  0.00000000E+00  0.00000000E+00
  0.00000000E+00  0.00000000E+00  0.00000000E+00
  0.00000000E+00  0.00000000E+00  0.00000000E+00
  0.00000000E+00  0.00000000E+00  0.00000000E+00
  0.00000000E+00  0.00000000E+00  0.00000000E+00
  0.00000000E+00  0.00000000E+00  0.00000000E+00
  0.00000000E+00  0.00000000E+00  0.00000000E+00
  0.00000000E+00  0.00000000E+00  0.00000000E+00
  0.00000000E+00  0.00000000E+00  0.00000000E+00
  0.00000000E+00  0.00000000E+00  0.00000000E+00
  0.00000000E+00  0.00000000E+00  0.00000000E+00
  0.00000000E+00  0.00000000E+00  0.00000000E+00
  0.00000000E+00  0.00000000E+00  0.00000000E+00
  0.00000000E+00  0.00000000E+00  0.00000000E+00
  0.00000000E+00  0.00000000E+00  0.00000000E+00
  0.00000000E+00  0.00000000E+00  0.00000000E+00
  0.00000000E+00  0.00000000E+00  0.00000000E+00
  0.00000000E+00  0.00000000E+00  0.00000000E+00
  0.00000000E+00  0.00000000E+00  0.00000000E+00
  0.00000000E+00  0.00000000E+00  0.00000000E+00
  0.00000000E+00  0.00000000E+00  0.00000000E+00
  0.00000000E+00  0.00000000E+00  0.00000000E+00
  0.00000000E+00  0.00000000E+00  0.00000000E+00
  0.00000000E+00  0.00000000E+00  0.00000000E+00
  0.00000000E+00  0.00000000E+00  0.00000000E+00
  0.00000000E+00  0.00000000E+00  0.00000000E+00
  0.00000000E+00  0.00000000E+00  0.00000000E+00
  0.00000000E+00  0.00000000E+00  0.00000000E+00
  0.00000000E+00  0.00000000E+00  0.00000000E+00
  0.00000000E+00  0.00000000E+00  0.00000000E+00
  0.00000000E+00  0.00000000E+00  0.00000000E+00
  0.00000000E+00  0.00000000E+00  0.00000000E+00
  0.00000000E+00  0.00000000E+00  0.00000000E+00
  0.00000000E+00  0.00000000E+00  0.00000000E+00
  0.00000000E+00  0.00000000E+00  0.00000000E+00
  0.00000000E+00  0.00000000E+00  0.00000000E+00
  0.00000000E+00  0.00000000E+00  0.00000000E+00
  0.00000000E+00  0.00000000E+00  0.00000000E+00
  0.00000000E+00  0.00000000E+00  0.00000000E+00
  0.00000000E+00  0.00000000E+00  0.00000000E+00
  0.00000000E+00  0.00000000E+00  0.00000000E+00
  0.00000000E+00  0.00000000E+00  0.00000000E+00
  0.00000000E+00  0.00000000E+00  0.00000000E+00
  0.00000000E+00  0.00000000E+00  0.00000000E+00
  0.00000000E+00  0.00000000E+00  0.00000000E+00
  0.00000000E+00  0.00000000E+00  0.00000000E+00
  0.00000000E+00  0.00000000E+00  0.00000000E+00
  0.00000000E+00  0.00000000E+00  0.00000000E+00
  0.00000000E+00  0.00000000E+00  0.00000000E+00
  0.00000000E+00  0.00000000E+00  0.00000000E+00
  0.00000000E+00  0.00000000E+00  0.00000000E+00
  0.00000000E+00  0.00000000E+00  0.00000000E+00
