B N C F O                               
   1.00000000000000     
     5.0243667044670000   -8.7024973729579997    0.0000000000000000
     5.0243667044670000    8.7024973729579997    0.0000000000000000
     0.0000000000000000    0.0000000000000000   35.1146643855649998
   B    N    C    F    O 
    16    16     3     5     2
Selective dynamics
Direct
  0.1665419795977840  0.0834531898770777  0.5021237315890332   T   T   T
  0.1665349681850876  0.3334486810840708  0.5021596453689642   T   T   T
  0.1665345026485380  0.5834561668326312  0.5021370041185742   T   T   T
  0.1665485721866537  0.8334651849206887  0.5021085142539876   T   T   T
  0.4165718732162655  0.0834793811419853  0.5020907354799672   T   T   T
  0.4165191443723285  0.3334311361466855  0.5021251182846288   T   T   T
  0.4165674140562611  0.5834460632955599  0.5020941181934988   T   T   T
  0.4165622447461849  0.8335246799027338  0.5019268821177056   T   T   T
  0.6666146661909891  0.0835055665745861  0.5020835041345401   T   T   T
  0.6666212079970415  0.3334593629384351  0.5021725990347314   T   T   T
  0.6666285150471176  0.5835128292121715  0.5021945319217819   T   T   T
  0.6666279887025536  0.8335204076105674  0.5020660038807573   T   T   T
  0.9165760490239756  0.0834768139375037  0.5021300741870868   T   T   T
  0.9165820791613832  0.3334640398883785  0.5021527966828347   T   T   T
  0.9165898382600497  0.5834732227591539  0.5021628435154435   T   T   T
  0.9165836045771051  0.8334842596309763  0.5021442642581683   T   T   T
  0.0832435289710333  0.1668090235279709  0.5021494279835369   T   T   T
  0.0832532209079274  0.4168216366800496  0.5021669759633014   T   T   T
  0.0832549900331346  0.6668093390374676  0.5021423516574027   T   T   T
  0.0832364517870931  0.9168077192859253  0.5021355766412998   T   T   T
  0.3332540438783402  0.1668225634126105  0.5020996271427438   T   T   T
  0.3332572026096416  0.4168107187666490  0.5021605375292083   T   T   T
  0.3332856487663648  0.6668456463134448  0.5020767176600009   T   T   T
  0.3332477664684795  0.9168242049760019  0.5020362700080538   T   T   T
  0.5832450895427667  0.1668203404295363  0.5021630673494379   T   T   T
  0.5832189270699356  0.4167914408605070  0.5022552781557428   T   T   T
  0.5832389585616627  0.6668246086535651  0.5021897784726101   T   T   T
  0.5832231997825968  0.9167999073276814  0.5019633390583034   T   T   T
  0.8332308174299754  0.1668032932920580  0.5021168895232329   T   T   T
  0.8332295351454919  0.4168035475837964  0.5021655342519623   T   T   T
  0.8332304714952965  0.6667948150986890  0.5021671396010545   T   T   T
  0.8332231749045738  0.9168035857493481  0.5021186207575683   T   T   T
  0.5644833218190810  0.4472302392662820  0.6533915450950059   T   T   T
  0.5471833658064403  0.3980736560740336  0.6122674380079014   T   T   T
  0.4719435793759319  0.7874577669408416  0.6063859947644270   T   T   T
  0.6994454156473517  0.5764931488000868  0.6585793897893151   T   T   T
  0.5600858415285367  0.3394236423774981  0.6772822048325291   T   T   T
  0.4501669313847254  0.4727077981234757  0.6632602332572833   T   T   T
  0.6618506345089893  0.3816028472094626  0.5990736129029095   T   T   T
  0.4112468549383314  0.2782044719357885  0.6037945602971042   T   T   T
  0.6033627282257916  0.8677537751678192  0.6019149389797470   T   T   T
  0.3404447760771545  0.7066900734771921  0.6106132980986222   T   T   T
 
  0.00000000E+00  0.00000000E+00  0.00000000E+00
  0.00000000E+00  0.00000000E+00  0.00000000E+00
  0.00000000E+00  0.00000000E+00  0.00000000E+00
  0.00000000E+00  0.00000000E+00  0.00000000E+00
  0.00000000E+00  0.00000000E+00  0.00000000E+00
  0.00000000E+00  0.00000000E+00  0.00000000E+00
  0.00000000E+00  0.00000000E+00  0.00000000E+00
  0.00000000E+00  0.00000000E+00  0.00000000E+00
  0.00000000E+00  0.00000000E+00  0.00000000E+00
  0.00000000E+00  0.00000000E+00  0.00000000E+00
  0.00000000E+00  0.00000000E+00  0.00000000E+00
  0.00000000E+00  0.00000000E+00  0.00000000E+00
  0.00000000E+00  0.00000000E+00  0.00000000E+00
  0.00000000E+00  0.00000000E+00  0.00000000E+00
  0.00000000E+00  0.00000000E+00  0.00000000E+00
  0.00000000E+00  0.00000000E+00  0.00000000E+00
  0.00000000E+00  0.00000000E+00  0.00000000E+00
  0.00000000E+00  0.00000000E+00  0.00000000E+00
  0.00000000E+00  0.00000000E+00  0.00000000E+00
  0.00000000E+00  0.00000000E+00  0.00000000E+00
  0.00000000E+00  0.00000000E+00  0.00000000E+00
  0.00000000E+00  0.00000000E+00  0.00000000E+00
  0.00000000E+00  0.00000000E+00  0.00000000E+00
  0.00000000E+00  0.00000000E+00  0.00000000E+00
  0.00000000E+00  0.00000000E+00  0.00000000E+00
  0.00000000E+00  0.00000000E+00  0.00000000E+00
  0.00000000E+00  0.00000000E+00  0.00000000E+00
  0.00000000E+00  0.00000000E+00  0.00000000E+00
  0.00000000E+00  0.00000000E+00  0.00000000E+00
  0.00000000E+00  0.00000000E+00  0.00000000E+00
  0.00000000E+00  0.00000000E+00  0.00000000E+00
  0.00000000E+00  0.00000000E+00  0.00000000E+00
  0.00000000E+00  0.00000000E+00  0.00000000E+00
  0.00000000E+00  0.00000000E+00  0.00000000E+00
  0.00000000E+00  0.00000000E+00  0.00000000E+00
  0.00000000E+00  0.00000000E+00  0.00000000E+00
  0.00000000E+00  0.00000000E+00  0.00000000E+00
  0.00000000E+00  0.00000000E+00  0.00000000E+00
  0.00000000E+00  0.00000000E+00  0.00000000E+00
  0.00000000E+00  0.00000000E+00  0.00000000E+00
  0.00000000E+00  0.00000000E+00  0.00000000E+00
  0.00000000E+00  0.00000000E+00  0.00000000E+00
