B N C F O                               
   1.00000000000000     
     7.5365500567000003  -13.0537460594369996    0.0000000000000000
     7.5365500567000003   13.0537460594369996    0.0000000000000000
     0.0000000000000000    0.0000000000000000   35.1146643855649998
   B    N    C    F    O 
    36    36     6    11     2
Selective dynamics
Direct
  0.1139666560913723  0.0570553503428393  0.4955866588573988   T   T   T
  0.1139538757614684  0.2237164432037870  0.4957944085247584   T   T   T
  0.1139756482867902  0.3903918731320392  0.4956577449175686   T   T   T
  0.1140207222599346  0.5570459753790745  0.4951004954766871   T   T   T
  0.1139604773960048  0.7236748975858495  0.4952311803865875   T   T   T
  0.1139684612423683  0.8903651489580575  0.4954033337104405   T   T   T
  0.2806172136126658  0.0570302831822927  0.4954645808540617   T   T   T
  0.2806251677996247  0.2237349414420680  0.4954892270813746   T   T   T
  0.2806112465829475  0.3904317887086163  0.4953659851776698   T   T   T
  0.2806146729143446  0.5571234602104587  0.4952189917313744   T   T   T
  0.2805745099014415  0.7235488510913453  0.4951075795403856   T   T   T
  0.2806056835145611  0.8903176767163220  0.4954383634289884   T   T   T
  0.4472534807960268  0.0569946815861821  0.4952436298740492   T   T   T
  0.4472746907985545  0.2237090778707249  0.4949247120822582   T   T   T
  0.4472800324170884  0.3904152208352713  0.4945983676164487   T   T   T
  0.4472928111909165  0.5570896573859347  0.4941071459965008   T   T   T
  0.4472203946469784  0.7236244915451897  0.4948230972017337   T   T   T
  0.4472361522966620  0.8902778866213670  0.4952527510088101   T   T   T
  0.6139091402054196  0.0569931834045584  0.4952479272770184   T   T   T
  0.6138873542336392  0.2236760398673279  0.4948883821303121   T   T   T
  0.6139427187457409  0.3903635752473983  0.4943131231687053   T   T   T
  0.6139589767321527  0.5571009769174516  0.4938051287038648   T   T   T
  0.6139529949750651  0.7236700778276819  0.4940788287265809   T   T   T
  0.6139278247233623  0.8903210893400264  0.4950213836878133   T   T   T
  0.7805927693814124  0.0570103815289001  0.4953873959058833   T   T   T
  0.7805715950325949  0.2236615041705582  0.4953966973672081   T   T   T
  0.7805784887523890  0.3903463442147911  0.4949246088881473   T   T   T
  0.7806188228595752  0.5570458062377632  0.4945191346354947   T   T   T
  0.7806460852643932  0.7237092985240225  0.4944766030003163   T   T   T
  0.7806196196959146  0.8903741319113219  0.4949417956860484   T   T   T
  0.9472847877208586  0.0570423502694570  0.4955337916918065   T   T   T
  0.9472555072225074  0.2236870571454603  0.4957333760065464   T   T   T
  0.9472655541967063  0.3903427942259003  0.4954492103915107   T   T   T
  0.9472797113376508  0.5570136368972203  0.4950644933706649   T   T   T
  0.9472947708042585  0.7236976502618711  0.4949909092980234   T   T   T
  0.9473104587985399  0.8903891929754784  0.4951612670136029   T   T   T
  0.0584071935281787  0.1126044795648486  0.4957002194896668   T   T   T
  0.0583805013201963  0.2792549656227473  0.4958093332098903   T   T   T
  0.0583612341142606  0.4458897431551970  0.4954498851522247   T   T   T
  0.0583766555312677  0.6125655787358963  0.4951150004484050   T   T   T
  0.0584089094446064  0.7792529574261852  0.4952129553773230   T   T   T
  0.0584294137732092  0.9459429372581627  0.4953994192856646   T   T   T
  0.2250870939940461  0.1126209253565690  0.4955778577640136   T   T   T
  0.2250837310409069  0.2792931688313720  0.4956943998818444   T   T   T
  0.2250719026872012  0.4459493613771534  0.4955186650744760   T   T   T
  0.2249953425227791  0.6125538012610543  0.4946717545771984   T   T   T
  0.2250632597693456  0.7792162381328681  0.4953321126302886   T   T   T
  0.2250743237167590  0.9459173931237717  0.4955171621524003   T   T   T
  0.3917272718572333  0.1125995524610069  0.4952253649291474   T   T   T
  0.3917530316498659  0.2793098894905114  0.4950889505072213   T   T   T
  0.3917493721665093  0.4459678122606242  0.4946280586126411   T   T   T
  0.3917570951189802  0.6125714951283394  0.4945993445325833   T   T   T
  0.3917100068771888  0.7792124151358562  0.4950748153385842   T   T   T
  0.3917203921866105  0.9458944710585174  0.4953621901988348   T   T   T
  0.5583669136374910  0.1125705258104287  0.4951166456565122   T   T   T
  0.5583702602193721  0.2792552347147159  0.4944941122380919   T   T   T
  0.5584169349414041  0.4459656248711172  0.4942069342525701   T   T   T
  0.5584434923500233  0.6126078811631338  0.4933073675229913   T   T   T
  0.5583951780476561  0.7792167284307604  0.4946437674459782   T   T   T
  0.5583797925538505  0.9458863575846109  0.4951995060498157   T   T   T
  0.7250281270508635  0.1125579289545960  0.4953559471631123   T   T   T
  0.7250093071409129  0.2792351949099669  0.4950938473802556   T   T   T
  0.7250500510948930  0.4459305758801794  0.4944914551549803   T   T   T
  0.7250832128904650  0.6126073507024926  0.4941662624258340   T   T   T
  0.7250852504047745  0.7792576406617201  0.4944468838374106   T   T   T
  0.7250565974316575  0.9459112494994366  0.4950995448390164   T   T   T
  0.8917156449324760  0.1125760728813663  0.4956195651423498   T   T   T
  0.8916863546676029  0.2792264177918078  0.4956203982750648   T   T   T
  0.8916830938795606  0.4458913261239754  0.4951422820159032   T   T   T
  0.8917181642408889  0.6125816741387597  0.4948689694868581   T   T   T
  0.8917551718277015  0.7792696485351664  0.4948673632103003   T   T   T
  0.8917429542903371  0.9459360175046495  0.4952107485868921   T   T   T
  0.6339255244161144  0.4076450226149379  0.6107079364235446   T   T   T
  0.6197343424260042  0.5021861868173457  0.6145900778468905   T   T   T
  0.5069323257398698  0.4780671236224676  0.6148459233218202   T   T   T
  0.4942206212981615  0.5736902091575081  0.6107047988610081   T   T   T
  0.3869305343107693  0.5560260219089054  0.6209488815584751   T   T   T
  0.3652536123134429  0.6388826137147364  0.6041127048582142   T   T   T
  0.5812493953032736  0.3386952583761940  0.6378136781196653   T   T   T
  0.6028893193331563  0.3631028475172997  0.5765724029039972   T   T   T
  0.7336739878581864  0.4386373843727831  0.6146093680068161   T   T   T
  0.6654627322987191  0.5494175837942286  0.6474998025192604   T   T   T
  0.6695374314485538  0.5656374714778121  0.5849936772930000   T   T   T
  0.4573444395859020  0.4127846591959366  0.5856783348772983   T   T   T
  0.4635289995091127  0.4304330600766944  0.6480954971641918   T   T   T
  0.5660217516847917  0.6494378256875594  0.6327361886949004   T   T   T
  0.5131923308492464  0.6044020920247353  0.5737168427028387   T   T   T
  0.3164850497868280  0.4601341004120727  0.6087123870290153   T   T   T
  0.3795133544579294  0.5557168118026972  0.6598387946391642   T   T   T
  0.4315435202368924  0.7286531016928968  0.6122976324449892   T   T   T
  0.2852462894731110  0.6074135792439511  0.5853188079168009   T   T   T
 
  0.00000000E+00  0.00000000E+00  0.00000000E+00
  0.00000000E+00  0.00000000E+00  0.00000000E+00
  0.00000000E+00  0.00000000E+00  0.00000000E+00
  0.00000000E+00  0.00000000E+00  0.00000000E+00
  0.00000000E+00  0.00000000E+00  0.00000000E+00
  0.00000000E+00  0.00000000E+00  0.00000000E+00
  0.00000000E+00  0.00000000E+00  0.00000000E+00
  0.00000000E+00  0.00000000E+00  0.00000000E+00
  0.00000000E+00  0.00000000E+00  0.00000000E+00
  0.00000000E+00  0.00000000E+00  0.00000000E+00
  0.00000000E+00  0.00000000E+00  0.00000000E+00
  0.00000000E+00  0.00000000E+00  0.00000000E+00
  0.00000000E+00  0.00000000E+00  0.00000000E+00
  0.00000000E+00  0.00000000E+00  0.00000000E+00
  0.00000000E+00  0.00000000E+00  0.00000000E+00
  0.00000000E+00  0.00000000E+00  0.00000000E+00
  0.00000000E+00  0.00000000E+00  0.00000000E+00
  0.00000000E+00  0.00000000E+00  0.00000000E+00
  0.00000000E+00  0.00000000E+00  0.00000000E+00
  0.00000000E+00  0.00000000E+00  0.00000000E+00
  0.00000000E+00  0.00000000E+00  0.00000000E+00
  0.00000000E+00  0.00000000E+00  0.00000000E+00
  0.00000000E+00  0.00000000E+00  0.00000000E+00
  0.00000000E+00  0.00000000E+00  0.00000000E+00
  0.00000000E+00  0.00000000E+00  0.00000000E+00
  0.00000000E+00  0.00000000E+00  0.00000000E+00
  0.00000000E+00  0.00000000E+00  0.00000000E+00
  0.00000000E+00  0.00000000E+00  0.00000000E+00
  0.00000000E+00  0.00000000E+00  0.00000000E+00
  0.00000000E+00  0.00000000E+00  0.00000000E+00
  0.00000000E+00  0.00000000E+00  0.00000000E+00
  0.00000000E+00  0.00000000E+00  0.00000000E+00
  0.00000000E+00  0.00000000E+00  0.00000000E+00
  0.00000000E+00  0.00000000E+00  0.00000000E+00
  0.00000000E+00  0.00000000E+00  0.00000000E+00
  0.00000000E+00  0.00000000E+00  0.00000000E+00
  0.00000000E+00  0.00000000E+00  0.00000000E+00
  0.00000000E+00  0.00000000E+00  0.00000000E+00
  0.00000000E+00  0.00000000E+00  0.00000000E+00
  0.00000000E+00  0.00000000E+00  0.00000000E+00
  0.00000000E+00  0.00000000E+00  0.00000000E+00
  0.00000000E+00  0.00000000E+00  0.00000000E+00
  0.00000000E+00  0.00000000E+00  0.00000000E+00
  0.00000000E+00  0.00000000E+00  0.00000000E+00
  0.00000000E+00  0.00000000E+00  0.00000000E+00
  0.00000000E+00  0.00000000E+00  0.00000000E+00
  0.00000000E+00  0.00000000E+00  0.00000000E+00
  0.00000000E+00  0.00000000E+00  0.00000000E+00
  0.00000000E+00  0.00000000E+00  0.00000000E+00
  0.00000000E+00  0.00000000E+00  0.00000000E+00
  0.00000000E+00  0.00000000E+00  0.00000000E+00
  0.00000000E+00  0.00000000E+00  0.00000000E+00
  0.00000000E+00  0.00000000E+00  0.00000000E+00
  0.00000000E+00  0.00000000E+00  0.00000000E+00
  0.00000000E+00  0.00000000E+00  0.00000000E+00
  0.00000000E+00  0.00000000E+00  0.00000000E+00
  0.00000000E+00  0.00000000E+00  0.00000000E+00
  0.00000000E+00  0.00000000E+00  0.00000000E+00
  0.00000000E+00  0.00000000E+00  0.00000000E+00
  0.00000000E+00  0.00000000E+00  0.00000000E+00
  0.00000000E+00  0.00000000E+00  0.00000000E+00
  0.00000000E+00  0.00000000E+00  0.00000000E+00
  0.00000000E+00  0.00000000E+00  0.00000000E+00
  0.00000000E+00  0.00000000E+00  0.00000000E+00
  0.00000000E+00  0.00000000E+00  0.00000000E+00
  0.00000000E+00  0.00000000E+00  0.00000000E+00
  0.00000000E+00  0.00000000E+00  0.00000000E+00
  0.00000000E+00  0.00000000E+00  0.00000000E+00
  0.00000000E+00  0.00000000E+00  0.00000000E+00
  0.00000000E+00  0.00000000E+00  0.00000000E+00
  0.00000000E+00  0.00000000E+00  0.00000000E+00
  0.00000000E+00  0.00000000E+00  0.00000000E+00
  0.00000000E+00  0.00000000E+00  0.00000000E+00
  0.00000000E+00  0.00000000E+00  0.00000000E+00
  0.00000000E+00  0.00000000E+00  0.00000000E+00
  0.00000000E+00  0.00000000E+00  0.00000000E+00
  0.00000000E+00  0.00000000E+00  0.00000000E+00
  0.00000000E+00  0.00000000E+00  0.00000000E+00
  0.00000000E+00  0.00000000E+00  0.00000000E+00
  0.00000000E+00  0.00000000E+00  0.00000000E+00
  0.00000000E+00  0.00000000E+00  0.00000000E+00
  0.00000000E+00  0.00000000E+00  0.00000000E+00
  0.00000000E+00  0.00000000E+00  0.00000000E+00
  0.00000000E+00  0.00000000E+00  0.00000000E+00
  0.00000000E+00  0.00000000E+00  0.00000000E+00
  0.00000000E+00  0.00000000E+00  0.00000000E+00
  0.00000000E+00  0.00000000E+00  0.00000000E+00
  0.00000000E+00  0.00000000E+00  0.00000000E+00
  0.00000000E+00  0.00000000E+00  0.00000000E+00
  0.00000000E+00  0.00000000E+00  0.00000000E+00
  0.00000000E+00  0.00000000E+00  0.00000000E+00
