B N O                                   
   1.00000000000000     
     5.0243667044670000   -8.7024973729579997    0.0000000000000000
     5.0243667044670000    8.7024973729579997    0.0000000000000000
     0.0000000000000000    0.0000000000000000   35.1146643855649998
   B    N    O 
    16    15     1
Selective dynamics
Direct
  0.1660429510861618  0.0831982591394436  0.5000000000000000   T   T   T
  0.1660429510861618  0.3328452516297133  0.5000000000000000   T   T   T
  0.1666253144038237  0.5832501900796672  0.5000000000000000   T   T   T
  0.1666253144038237  0.8333756840071729  0.5000000000000000   T   T   T
  0.4163556809099020  0.0827109230918168  0.5000000000000000   T   T   T
  0.4118118576432863  0.3309062086631371  0.5000000000000000   T   T   T
  0.4163556809099020  0.5836453175010945  0.5000000000000000   T   T   T
  0.4167508083313294  0.8333756840071729  0.5000000000000000   T   T   T
  0.6671557467812832  0.0831982591394436  0.5000000000000000   T   T   T
  0.6690947897478594  0.3309062086631371  0.5000000000000000   T   T   T
  0.6690947897478594  0.5881891407677102  0.5000000000000000   T   T   T
  0.6671557467812832  0.8339580473248347  0.5000000000000000   T   T   T
  0.9166671457129993  0.0833338526979972  0.5000000000000000   T   T   T
  0.9168027392715530  0.3328452516297133  0.5000000000000000   T   T   T
  0.9172900753191797  0.5836453175010945  0.5000000000000000   T   T   T
  0.9168027392715530  0.8339580473248347  0.5000000000000000   T   T   T
  0.0834813255034845  0.1667408821157395  0.5000000000000000   T   T   T
  0.0832734906053076  0.4165464215276202  0.5000000000000000   T   T   T
  0.0830260253038801  0.6665132320159444  0.5000000000000000   T   T   T
  0.0832734906053076  0.9167275078056889  0.5000000000000000   T   T   T
  0.3345369787190506  0.1677476817548680  0.5000000000000000   T   T   T
  0.3345369787190506  0.4167897356921983  0.5000000000000000   T   T   T
  0.3334877663950522  0.6665132320159444  0.5000000000000000   T   T   T
  0.3334877663950522  0.9169749731071164  0.5000000000000000   T   T   T
  0.5832112627187982  0.1677476817548680  0.5000000000000000   T   T   T
  0.5832112627187982  0.6654640196919459  0.5000000000000000   T   T   T
  0.5834545768833763  0.9167275078056889  0.5000000000000000   T   T   T
  0.8332601162952571  0.1667408821157395  0.5000000000000000   T   T   T
  0.8322533166561286  0.4167897356921983  0.5000000000000000   T   T   T
  0.8322533166561286  0.6654640196919459  0.5000000000000000   T   T   T
  0.8332601162952571  0.9165196729075120  0.5000000000000000   T   T   T
  0.5833338526979972  0.4166671457129993  0.5000000000000000   T   T   T
 
  0.00000000E+00  0.00000000E+00  0.00000000E+00
  0.00000000E+00  0.00000000E+00  0.00000000E+00
  0.00000000E+00  0.00000000E+00  0.00000000E+00
  0.00000000E+00  0.00000000E+00  0.00000000E+00
  0.00000000E+00  0.00000000E+00  0.00000000E+00
  0.00000000E+00  0.00000000E+00  0.00000000E+00
  0.00000000E+00  0.00000000E+00  0.00000000E+00
  0.00000000E+00  0.00000000E+00  0.00000000E+00
  0.00000000E+00  0.00000000E+00  0.00000000E+00
  0.00000000E+00  0.00000000E+00  0.00000000E+00
  0.00000000E+00  0.00000000E+00  0.00000000E+00
  0.00000000E+00  0.00000000E+00  0.00000000E+00
  0.00000000E+00  0.00000000E+00  0.00000000E+00
  0.00000000E+00  0.00000000E+00  0.00000000E+00
  0.00000000E+00  0.00000000E+00  0.00000000E+00
  0.00000000E+00  0.00000000E+00  0.00000000E+00
  0.00000000E+00  0.00000000E+00  0.00000000E+00
  0.00000000E+00  0.00000000E+00  0.00000000E+00
  0.00000000E+00  0.00000000E+00  0.00000000E+00
  0.00000000E+00  0.00000000E+00  0.00000000E+00
  0.00000000E+00  0.00000000E+00  0.00000000E+00
  0.00000000E+00  0.00000000E+00  0.00000000E+00
  0.00000000E+00  0.00000000E+00  0.00000000E+00
  0.00000000E+00  0.00000000E+00  0.00000000E+00
  0.00000000E+00  0.00000000E+00  0.00000000E+00
  0.00000000E+00  0.00000000E+00  0.00000000E+00
  0.00000000E+00  0.00000000E+00  0.00000000E+00
  0.00000000E+00  0.00000000E+00  0.00000000E+00
  0.00000000E+00  0.00000000E+00  0.00000000E+00
  0.00000000E+00  0.00000000E+00  0.00000000E+00
  0.00000000E+00  0.00000000E+00  0.00000000E+00
  0.00000000E+00  0.00000000E+00  0.00000000E+00
