B C F N O                               
   1.00000000000000     
     7.5365500567000003  -13.0537460594369996    0.0000000000000000
     7.5365500567000003   13.0537460594369996    0.0000000000000000
     0.0000000000000000    0.0000000000000000   35.1146643855649998
   B    C    F    N    O 
    36     8    15    35     3
Selective dynamics
Direct
  0.1111836269911332  0.0558092698319760  0.4927547091783869   T   T   T
  0.1110812512150818  0.2224568046618431  0.4926427315092921   T   T   T
  0.1106452660501081  0.3889824122524055  0.4927086507373490   T   T   T
  0.1107408716115577  0.5555469512988402  0.4927258613040225   T   T   T
  0.1111852448843993  0.7224445957524008  0.4928318487225178   T   T   T
  0.1111853227960480  0.8890974814633458  0.4928590356422367   T   T   T
  0.2778753422197739  0.0558110969585614  0.4925889752347440   T   T   T
  0.2778897199166960  0.2224673922921179  0.4921056312047916   T   T   T
  0.2775667035653854  0.3887225117779908  0.4917656782370958   T   T   T
  0.2742652723645106  0.5542744487159444  0.4919544402491697   T   T   T
  0.2775866746758139  0.7227792555558333  0.4930224877898148   T   T   T
  0.2778429313844030  0.8891214693005868  0.4927841019941598   T   T   T
  0.4445732177487277  0.0558731873137481  0.4925639089482677   T   T   T
  0.4445818404331628  0.2225082471237805  0.4918324166417188   T   T   T
  0.4448271959395380  0.3890242586739440  0.4909247240659894   T   T   T
  0.4462432589826366  0.5543112574912767  0.4908298966098781   T   T   T
  0.4463221200938918  0.7263323791483337  0.4917708957953482   T   T   T
  0.4448280282758093  0.8896698388430911  0.4926180303783526   T   T   T
  0.6112922590106439  0.0560428015551233  0.4925890240103805   T   T   T
  0.6111996926360176  0.2225013456518043  0.4920826738248845   T   T   T
  0.6112783995085198  0.3890217674598273  0.4913573746897453   T   T   T
  0.6113792338880198  0.5555133049418244  0.4909555441253982   T   T   T
  0.6117188583867761  0.7228146280822425  0.4914598460371141   T   T   T
  0.6114215137330884  0.8897623133742456  0.4923162582326421   T   T   T
  0.7778606063628056  0.0559149628205206  0.4927312492432874   T   T   T
  0.7778171037163991  0.2224956158113785  0.4926112246357225   T   T   T
  0.7778092182708586  0.3890626340919827  0.4923101912290777   T   T   T
  0.7778389425586454  0.5557020729695938  0.4921093827151627   T   T   T
  0.7778967808777753  0.7224271845476917  0.4921058307264508   T   T   T
  0.7779113635856255  0.8892660690439255  0.4924394979969287   T   T   T
  0.9444962360565867  0.0558344538544603  0.4928396332868393   T   T   T
  0.9444378846095740  0.2224928482332375  0.4928785606804834   T   T   T
  0.9442907236819140  0.3890164419451278  0.4928475430791135   T   T   T
  0.9444454202868909  0.5556976991991595  0.4927921058470643   T   T   T
  0.9444939691796618  0.7223851948148311  0.4927022975373810   T   T   T
  0.9445005625743395  0.8891060244529443  0.4927440846114246   T   T   T
  0.5221800323216312  0.3958404876957117  0.6098798118144653   T   T   T
  0.5352928544094462  0.5043539295982381  0.6146590526710822   T   T   T
  0.6127408385021150  0.3866970006795679  0.6264740574765554   T   T   T
  0.4340596081301230  0.5067590795954423  0.6095332601120479   T   T   T
  0.4500234651502327  0.6159712453919157  0.6034672536267734   T   T   T
  0.3531710985159623  0.6251730495178988  0.6079912795803837   T   T   T
  0.6187225589474397  0.2931893903059667  0.6113024740832564   T   T   T
  0.3621033076171218  0.7258958556499870  0.5915926271420902   T   T   T
  0.4350338879127941  0.3265388110423632  0.6275290648614319   T   T   T
  0.5140720062284158  0.3726620116091605  0.5723040183995900   T   T   T
  0.5732732037492443  0.5390720307513780  0.6498621106954342   T   T   T
  0.6037636308905725  0.5671295090260801  0.5883444271629819   T   T   T
  0.3846954770941743  0.4477782378079582  0.5788198241910139   T   T   T
  0.3752266866745290  0.4650151240058643  0.6407958741697506   T   T   T
  0.5238065461862217  0.6795622761364800  0.6279996381150841   T   T   T
  0.4850583171224054  0.6448500896533255  0.5671284233237143   T   T   T
  0.7020587515997265  0.4721917675701919  0.6176837604175675   T   T   T
  0.6031542554412419  0.3783575046652385  0.6646969532561089   T   T   T
  0.2746840106371912  0.5394875673281869  0.5912774068837620   T   T   T
  0.3307728624442353  0.6193654757411782  0.6461254304359150   T   T   T
  0.5258887109798420  0.2087867010278756  0.6120149902894085   T   T   T
  0.6544119641794428  0.3096648645507773  0.5755917472064943   T   T   T
  0.6823208405426652  0.2781788258371974  0.6333856021468295   T   T   T
  0.0556971029925326  0.1115246754029259  0.4928043616438134   T   T   T
  0.0558812889774521  0.2783506113537588  0.4928053299558328   T   T   T
  0.0558355045027816  0.4448117342633228  0.4928486949704121   T   T   T
  0.0558400212894597  0.6112851136514933  0.4928996036839560   T   T   T
  0.0556533593530444  0.7779215208204889  0.4928564342345553   T   T   T
  0.0556172331028639  0.9446871268583394  0.4928505305874475   T   T   T
  0.2223806614379484  0.1115479087147661  0.4925342336195406   T   T   T
  0.2225156183400042  0.2785040872138987  0.4922160748106736   T   T   T
  0.2232042616034660  0.4455871626319504  0.4922866145835353   T   T   T
  0.2231147343804849  0.6114769614299084  0.4922272224189845   T   T   T
  0.2224377535046303  0.7778767466504496  0.4926386544046834   T   T   T
  0.2223585596928624  0.9446495353853432  0.4928048963189969   T   T   T
  0.3889973482528434  0.1114347480451556  0.4923920990636748   T   T   T
  0.3890144073199266  0.2784219134868397  0.4915725880396182   T   T   T
  0.3889040074522264  0.4456636956692168  0.4909514761724528   T   T   T
  0.3889373964580370  0.7772829676821601  0.4922643195061104   T   T   T
  0.3890156969548269  0.9444942868628381  0.4927677618461201   T   T   T
  0.5556139582314598  0.1113447375917538  0.4924676439872550   T   T   T
  0.5555798367360621  0.2781025440449694  0.4915932338014594   T   T   T
  0.5555110457662258  0.4448723940736475  0.4907168928054724   T   T   T
  0.5548742865199894  0.6115205498340940  0.4907823449349597   T   T   T
  0.5549431502697674  0.7772655695627267  0.4917650252298512   T   T   T
  0.5555565629480240  0.9445390752325554  0.4925176518613731   T   T   T
  0.7222548088006393  0.1113226692613985  0.4926830075472950   T   T   T
  0.7222631314045591  0.2780161758519721  0.4922390333992373   T   T   T
  0.7221954603497831  0.4446786174988951  0.4919586729876348   T   T   T
  0.7219716173481295  0.6113000494786115  0.4917277300209797   T   T   T
  0.7219106619864984  0.7778474472191357  0.4919986643345530   T   T   T
  0.7220468941425200  0.9444990432301403  0.4925197298395365   T   T   T
  0.8889567118038029  0.1114014050116725  0.4928531633232282   T   T   T
  0.8890064371116302  0.2780675269265989  0.4928291491581632   T   T   T
  0.8889728441910086  0.4446681650609973  0.4927270034235007   T   T   T
  0.8888923330129594  0.6112760498935879  0.4926102662251209   T   T   T
  0.8887967360301663  0.7779189572753522  0.4925805081818952   T   T   T
  0.8888343708077351  0.9446401606041643  0.4927336235405484   T   T   T
  0.3889803252765939  0.6115507508821074  0.4918201727903084   T   T   T
  0.4468003209754465  0.8038529485912359  0.5974240858246015   T   T   T
  0.2827808309760641  0.7146687919045803  0.5763007828856155   T   T   T
 
  0.00000000E+00  0.00000000E+00  0.00000000E+00
  0.00000000E+00  0.00000000E+00  0.00000000E+00
  0.00000000E+00  0.00000000E+00  0.00000000E+00
  0.00000000E+00  0.00000000E+00  0.00000000E+00
  0.00000000E+00  0.00000000E+00  0.00000000E+00
  0.00000000E+00  0.00000000E+00  0.00000000E+00
  0.00000000E+00  0.00000000E+00  0.00000000E+00
  0.00000000E+00  0.00000000E+00  0.00000000E+00
  0.00000000E+00  0.00000000E+00  0.00000000E+00
  0.00000000E+00  0.00000000E+00  0.00000000E+00
  0.00000000E+00  0.00000000E+00  0.00000000E+00
  0.00000000E+00  0.00000000E+00  0.00000000E+00
  0.00000000E+00  0.00000000E+00  0.00000000E+00
  0.00000000E+00  0.00000000E+00  0.00000000E+00
  0.00000000E+00  0.00000000E+00  0.00000000E+00
  0.00000000E+00  0.00000000E+00  0.00000000E+00
  0.00000000E+00  0.00000000E+00  0.00000000E+00
  0.00000000E+00  0.00000000E+00  0.00000000E+00
  0.00000000E+00  0.00000000E+00  0.00000000E+00
  0.00000000E+00  0.00000000E+00  0.00000000E+00
  0.00000000E+00  0.00000000E+00  0.00000000E+00
  0.00000000E+00  0.00000000E+00  0.00000000E+00
  0.00000000E+00  0.00000000E+00  0.00000000E+00
  0.00000000E+00  0.00000000E+00  0.00000000E+00
  0.00000000E+00  0.00000000E+00  0.00000000E+00
  0.00000000E+00  0.00000000E+00  0.00000000E+00
  0.00000000E+00  0.00000000E+00  0.00000000E+00
  0.00000000E+00  0.00000000E+00  0.00000000E+00
  0.00000000E+00  0.00000000E+00  0.00000000E+00
  0.00000000E+00  0.00000000E+00  0.00000000E+00
  0.00000000E+00  0.00000000E+00  0.00000000E+00
  0.00000000E+00  0.00000000E+00  0.00000000E+00
  0.00000000E+00  0.00000000E+00  0.00000000E+00
  0.00000000E+00  0.00000000E+00  0.00000000E+00
  0.00000000E+00  0.00000000E+00  0.00000000E+00
  0.00000000E+00  0.00000000E+00  0.00000000E+00
  0.00000000E+00  0.00000000E+00  0.00000000E+00
  0.00000000E+00  0.00000000E+00  0.00000000E+00
  0.00000000E+00  0.00000000E+00  0.00000000E+00
  0.00000000E+00  0.00000000E+00  0.00000000E+00
  0.00000000E+00  0.00000000E+00  0.00000000E+00
  0.00000000E+00  0.00000000E+00  0.00000000E+00
  0.00000000E+00  0.00000000E+00  0.00000000E+00
  0.00000000E+00  0.00000000E+00  0.00000000E+00
  0.00000000E+00  0.00000000E+00  0.00000000E+00
  0.00000000E+00  0.00000000E+00  0.00000000E+00
  0.00000000E+00  0.00000000E+00  0.00000000E+00
  0.00000000E+00  0.00000000E+00  0.00000000E+00
  0.00000000E+00  0.00000000E+00  0.00000000E+00
  0.00000000E+00  0.00000000E+00  0.00000000E+00
  0.00000000E+00  0.00000000E+00  0.00000000E+00
  0.00000000E+00  0.00000000E+00  0.00000000E+00
  0.00000000E+00  0.00000000E+00  0.00000000E+00
  0.00000000E+00  0.00000000E+00  0.00000000E+00
  0.00000000E+00  0.00000000E+00  0.00000000E+00
  0.00000000E+00  0.00000000E+00  0.00000000E+00
  0.00000000E+00  0.00000000E+00  0.00000000E+00
  0.00000000E+00  0.00000000E+00  0.00000000E+00
  0.00000000E+00  0.00000000E+00  0.00000000E+00
  0.00000000E+00  0.00000000E+00  0.00000000E+00
  0.00000000E+00  0.00000000E+00  0.00000000E+00
  0.00000000E+00  0.00000000E+00  0.00000000E+00
  0.00000000E+00  0.00000000E+00  0.00000000E+00
  0.00000000E+00  0.00000000E+00  0.00000000E+00
  0.00000000E+00  0.00000000E+00  0.00000000E+00
  0.00000000E+00  0.00000000E+00  0.00000000E+00
  0.00000000E+00  0.00000000E+00  0.00000000E+00
  0.00000000E+00  0.00000000E+00  0.00000000E+00
  0.00000000E+00  0.00000000E+00  0.00000000E+00
  0.00000000E+00  0.00000000E+00  0.00000000E+00
  0.00000000E+00  0.00000000E+00  0.00000000E+00
  0.00000000E+00  0.00000000E+00  0.00000000E+00
  0.00000000E+00  0.00000000E+00  0.00000000E+00
  0.00000000E+00  0.00000000E+00  0.00000000E+00
  0.00000000E+00  0.00000000E+00  0.00000000E+00
  0.00000000E+00  0.00000000E+00  0.00000000E+00
  0.00000000E+00  0.00000000E+00  0.00000000E+00
  0.00000000E+00  0.00000000E+00  0.00000000E+00
  0.00000000E+00  0.00000000E+00  0.00000000E+00
  0.00000000E+00  0.00000000E+00  0.00000000E+00
  0.00000000E+00  0.00000000E+00  0.00000000E+00
  0.00000000E+00  0.00000000E+00  0.00000000E+00
  0.00000000E+00  0.00000000E+00  0.00000000E+00
  0.00000000E+00  0.00000000E+00  0.00000000E+00
  0.00000000E+00  0.00000000E+00  0.00000000E+00
  0.00000000E+00  0.00000000E+00  0.00000000E+00
  0.00000000E+00  0.00000000E+00  0.00000000E+00
  0.00000000E+00  0.00000000E+00  0.00000000E+00
  0.00000000E+00  0.00000000E+00  0.00000000E+00
  0.00000000E+00  0.00000000E+00  0.00000000E+00
  0.00000000E+00  0.00000000E+00  0.00000000E+00
  0.00000000E+00  0.00000000E+00  0.00000000E+00
  0.00000000E+00  0.00000000E+00  0.00000000E+00
  0.00000000E+00  0.00000000E+00  0.00000000E+00
  0.00000000E+00  0.00000000E+00  0.00000000E+00
  0.00000000E+00  0.00000000E+00  0.00000000E+00
  0.00000000E+00  0.00000000E+00  0.00000000E+00
