B N O                                   
   1.00000000000000     
     5.0243667044670000   -8.7024973729579997    0.0000000000000000
     5.0243667044670000    8.7024973729579997    0.0000000000000000
     0.0000000000000000    0.0000000000000000   35.1146643855649998
   B    N    O 
    15    17     2
Selective dynamics
Direct
  0.1667397195383487  0.0834783302258805  0.5000057550935444   T   T   T
  0.1671468320644188  0.3351541228365872  0.5000105690431610   T   T   T
  0.1671456935300214  0.5819901676640654  0.5000080959398158   T   T   T
  0.1667393873008662  0.8332611522628421  0.5000049724486291   T   T   T
  0.4166900618697899  0.0833466295842235  0.5000048405940968   T   T   T
  0.4180082899147446  0.3351551547989200  0.5000138983305541   T   T   T
  0.4180103235656640  0.8328547936905820  0.5000080749204948   T   T   T
  0.6668054753845745  0.0836121619849997  0.5000036193500149   T   T   T
  0.6668041998055221  0.3331963502162459  0.5000049303691529   T   T   T
  0.6648454510286096  0.5819923607459474  0.5000136117037054   T   T   T
  0.6648464914658514  0.8328536428552625  0.5000102097168743   T   T   T
  0.9166557869334919  0.0833448597200444  0.5000041800951692   T   T   T
  0.9163883798711980  0.3331950639149254  0.5000035793911902   T   T   T
  0.9166539429819701  0.5833104623542890  0.5000048598547306   T   T   T
  0.9165222596625943  0.8332608654190277  0.5000057780144384   T   T   T
  0.4166680307262354  0.5833323656633960  0.5000235795072274   T   T   T
  0.0847069523227922  0.1680098501329437  0.5000007023507075   T   T   T
  0.0830081518047070  0.4165034004725459  0.5000002087440782   T   T   T
  0.0847069225417886  0.6666957906619585  0.5000011562922115   T   T   T
  0.0833341292863814  0.9166664290234012  0.4999989598893445   T   T   T
  0.3333037014247681  0.1680104988215231  0.5000010619733021   T   T   T
  0.3355420870357310  0.4210836854688036  0.4999847184045530   T   T   T
  0.3355424911718620  0.6644579594316166  0.4999876746937813   T   T   T
  0.3333047383070337  0.9152936157024595  0.5000011454068207   T   T   T
  0.5831471456324389  0.1665747788912524  0.4999984717981730   T   T   T
  0.5789176648685816  0.6644588589592533  0.4999841243721022   T   T   T
  0.5834970894901165  0.9169923033387812  0.5000002891388480   T   T   T
  0.8334266944093728  0.1665738395429542  0.4999984111192905   T   T   T
  0.8334257550062319  0.4168533875578354  0.4999984598416934   T   T   T
  0.8319900944378263  0.6666968413970837  0.5000011156812177   T   T   T
  0.8319907944118294  0.9152936954550642  0.5000007287804388   T   T   T
  0.5834951857152156  0.4165053753447737  0.5000016735811119   T   T   T
  0.4008137896165291  0.4689158265520431  0.6261322168858442   T   T   T
  0.5281637324658870  0.5962701200334507  0.6261321080776864   T   T   T
 
  0.00000000E+00  0.00000000E+00  0.00000000E+00
  0.00000000E+00  0.00000000E+00  0.00000000E+00
  0.00000000E+00  0.00000000E+00  0.00000000E+00
  0.00000000E+00  0.00000000E+00  0.00000000E+00
  0.00000000E+00  0.00000000E+00  0.00000000E+00
  0.00000000E+00  0.00000000E+00  0.00000000E+00
  0.00000000E+00  0.00000000E+00  0.00000000E+00
  0.00000000E+00  0.00000000E+00  0.00000000E+00
  0.00000000E+00  0.00000000E+00  0.00000000E+00
  0.00000000E+00  0.00000000E+00  0.00000000E+00
  0.00000000E+00  0.00000000E+00  0.00000000E+00
  0.00000000E+00  0.00000000E+00  0.00000000E+00
  0.00000000E+00  0.00000000E+00  0.00000000E+00
  0.00000000E+00  0.00000000E+00  0.00000000E+00
  0.00000000E+00  0.00000000E+00  0.00000000E+00
  0.00000000E+00  0.00000000E+00  0.00000000E+00
  0.00000000E+00  0.00000000E+00  0.00000000E+00
  0.00000000E+00  0.00000000E+00  0.00000000E+00
  0.00000000E+00  0.00000000E+00  0.00000000E+00
  0.00000000E+00  0.00000000E+00  0.00000000E+00
  0.00000000E+00  0.00000000E+00  0.00000000E+00
  0.00000000E+00  0.00000000E+00  0.00000000E+00
  0.00000000E+00  0.00000000E+00  0.00000000E+00
  0.00000000E+00  0.00000000E+00  0.00000000E+00
  0.00000000E+00  0.00000000E+00  0.00000000E+00
  0.00000000E+00  0.00000000E+00  0.00000000E+00
  0.00000000E+00  0.00000000E+00  0.00000000E+00
  0.00000000E+00  0.00000000E+00  0.00000000E+00
  0.00000000E+00  0.00000000E+00  0.00000000E+00
  0.00000000E+00  0.00000000E+00  0.00000000E+00
  0.00000000E+00  0.00000000E+00  0.00000000E+00
  0.00000000E+00  0.00000000E+00  0.00000000E+00
  0.00000000E+00  0.00000000E+00  0.00000000E+00
  0.00000000E+00  0.00000000E+00  0.00000000E+00
