B N C F O                               
   1.00000000000000     
     7.5365500567000003  -13.0537460594369996    0.0000000000000000
     7.5365500567000003   13.0537460594369996    0.0000000000000000
     0.0000000000000000    0.0000000000000000   35.1146643855649998
   B    N    C    F    O 
    36    36     8    15     2
Selective dynamics
Direct
  0.1097754861212071  0.0569160363221491  0.4917408916487028   T   T   T
  0.1097803709869561  0.2235832918021218  0.4915195911366724   T   T   T
  0.1097737580424283  0.3902583143596411  0.4914615143130555   T   T   T
  0.1098334683738883  0.5569548427588649  0.4915814948009812   T   T   T
  0.1098560248433580  0.7236060902239625  0.4919558004589906   T   T   T
  0.1097928390789966  0.8902563742011044  0.4919748301565710   T   T   T
  0.2764359685351507  0.0569008518912212  0.4922116210847027   T   T   T
  0.2764407705678495  0.2236000191976911  0.4916206859897985   T   T   T
  0.2764359820343116  0.3902728087753990  0.4911191513991600   T   T   T
  0.2764072990896457  0.5569757137695980  0.4911485876364676   T   T   T
  0.2764924171953787  0.7235713664448523  0.4920672545942987   T   T   T
  0.2764172305466128  0.8901585646004074  0.4923302754838591   T   T   T
  0.4430903077670571  0.0568820788654181  0.4924520593911984   T   T   T
  0.4430926517822746  0.2235811223509887  0.4918531413373787   T   T   T
  0.4431006342067724  0.3902764232049786  0.4908887826640491   T   T   T
  0.4430746849474915  0.5569524154109661  0.4905686428421043   T   T   T
  0.4430447244085072  0.7236207370521470  0.4911234787315866   T   T   T
  0.4430734561805295  0.8901401612853573  0.4920363415184834   T   T   T
  0.6097588943021334  0.0568824001401933  0.4920549358364231   T   T   T
  0.6097654602603515  0.2235812159548330  0.4918707762460713   T   T   T
  0.6097470589598871  0.3902540243074447  0.4912650703134399   T   T   T
  0.6097500402446620  0.5569241995541643  0.4907716692762383   T   T   T
  0.6097491433174943  0.7235720891745381  0.4909145791255713   T   T   T
  0.6097421558125260  0.8902359517100068  0.4915418015050391   T   T   T
  0.7764314799810863  0.0569081252451597  0.4916287144455557   T   T   T
  0.7764287590633583  0.2235800267593798  0.4916992770685501   T   T   T
  0.7764235771285635  0.3902300773285814  0.4916138922245233   T   T   T
  0.7764458742488479  0.5569216433396142  0.4915051440214704   T   T   T
  0.7764377291054335  0.7235904820209778  0.4913397437585252   T   T   T
  0.7764200758965130  0.8902381374351804  0.4914059200807098   T   T   T
  0.9431046219602854  0.0569113717474415  0.4915312342942876   T   T   T
  0.9430915366783342  0.2235696146131754  0.4915576379867156   T   T   T
  0.9431162000387016  0.3902455529021678  0.4916186541458887   T   T   T
  0.9431362243132775  0.5569329824448492  0.4917415992802272   T   T   T
  0.9431083294921403  0.7235749131860419  0.4917059593825618   T   T   T
  0.9431092393006250  0.8902418595590216  0.4915827606022337   T   T   T
  0.0542238085724802  0.1124779468743201  0.4915785265526413   T   T   T
  0.0542188985575518  0.2791474985653496  0.4915056201976385   T   T   T
  0.0542118422793995  0.4458063669144692  0.4915406047370438   T   T   T
  0.0542153125371086  0.6124670195539297  0.4918157498519320   T   T   T
  0.0542183393273645  0.7791329673237226  0.4919013108641517   T   T   T
  0.0542204144169954  0.9458101625267246  0.4917590304779544   T   T   T
  0.2208957410340098  0.1124888620619198  0.4919184777233903   T   T   T
  0.2208959023539232  0.2791618260754115  0.4914279503747658   T   T   T
  0.2208897337027620  0.4458213196161953  0.4912567277887291   T   T   T
  0.2208443387213228  0.6124377714460749  0.4912709020900560   T   T   T
  0.2208800518885071  0.7791306974109107  0.4920927519024644   T   T   T
  0.2208910181879497  0.9457971350555375  0.4922743391138716   T   T   T
  0.3875591482167895  0.1124853972571566  0.4923554519624777   T   T   T
  0.3875705020968273  0.2791848894269253  0.4914816469530403   T   T   T
  0.3875483633574320  0.4458403448600499  0.4906713120352850   T   T   T
  0.3874961771651333  0.6124705384287745  0.4908040184129259   T   T   T
  0.3876049217643668  0.7791627516385654  0.4914491239438523   T   T   T
  0.3875559454418365  0.9457871417930784  0.4924475361215180   T   T   T
  0.5542223779889900  0.1124883270211212  0.4922988697946886   T   T   T
  0.5542041235494052  0.2791571367103359  0.4916634265225528   T   T   T
  0.5542066865777023  0.4458329694390572  0.4907652709272060   T   T   T
  0.5542041487862838  0.6124558561249063  0.4905081551949956   T   T   T
  0.5541902495928747  0.7791132526229997  0.4910967655460884   T   T   T
  0.5542214116207942  0.9458034257989960  0.4919408901344335   T   T   T
  0.7208750524288764  0.1124711044354896  0.4918102822386643   T   T   T
  0.7208685214699182  0.2791438078905839  0.4916480396118298   T   T   T
  0.7208435735572327  0.4457931880338319  0.4915322163993662   T   T   T
  0.7208667698333000  0.6124693513494271  0.4912373100430011   T   T   T
  0.7208580887128085  0.7791266223524398  0.4912166630572622   T   T   T
  0.7208661392548776  0.9457977816034192  0.4915022918212565   T   T   T
  0.8875464971941101  0.1124681124280302  0.4915436772868187   T   T   T
  0.8875391333719657  0.2791312036441673  0.4916012358425330   T   T   T
  0.8875306297788635  0.4457922260190304  0.4916730038284250   T   T   T
  0.8875359475348011  0.6124620810861284  0.4916961992022008   T   T   T
  0.8875421444975607  0.7791292623815769  0.4915430223138750   T   T   T
  0.8875436708321176  0.9458001018896982  0.4914837695309731   T   T   T
  0.5265578147081322  0.3925627961991056  0.6112953304128182   T   T   T
  0.5396665911185078  0.5009549051006800  0.6166290778505588   T   T   T
  0.6161242410314939  0.3824012123514946  0.6283524660919932   T   T   T
  0.4385369695529789  0.5035265681540657  0.6114736961305858   T   T   T
  0.4548475911466728  0.6129470648722636  0.6057280518224046   T   T   T
  0.3577340819033028  0.6215712508607737  0.6110980434196506   T   T   T
  0.6233253961704295  0.2900058739532026  0.6127311645387228   T   T   T
  0.3653826778225781  0.7207904652182107  0.5942899561956737   T   T   T
  0.4384803475001852  0.3224021259712358  0.6281894747307267   T   T   T
  0.5202517583067242  0.3713300406370110  0.5735753327404857   T   T   T
  0.5767394625993865  0.5342979286155758  0.6520458781093974   T   T   T
  0.6088163500534268  0.5647211353542780  0.5907309837368351   T   T   T
  0.3891641208054141  0.4452667826742284  0.5806759546558525   T   T   T
  0.3796166349490566  0.4613834068323144  0.6427269502225805   T   T   T
  0.5285385720301072  0.6763110890780292  0.6304636110746779   T   T   T
  0.4896233282778918  0.6429149436895503  0.5696503721716912   T   T   T
  0.7059618609435175  0.4684267690674572  0.6205971154395826   T   T   T
  0.6040697876296894  0.3715417354885683  0.6664691490049438   T   T   T
  0.2778062663953471  0.5356217217067258  0.5955124196143151   T   T   T
  0.3387441627656996  0.6186108389842626  0.6494219588609024   T   T   T
  0.5310167342179247  0.2049841025508276  0.6132757706380082   T   T   T
  0.6590654591770033  0.3076869351783622  0.5770050755353487   T   T   T
  0.6875136241712034  0.2754132730079017  0.6346311076169158   T   T   T
  0.4481181500549394  0.8008107416209282  0.6007326725936990   T   T   T
  0.2875151544024918  0.7097429778959138  0.5777704647787246   T   T   T
 
  0.00000000E+00  0.00000000E+00  0.00000000E+00
  0.00000000E+00  0.00000000E+00  0.00000000E+00
  0.00000000E+00  0.00000000E+00  0.00000000E+00
  0.00000000E+00  0.00000000E+00  0.00000000E+00
  0.00000000E+00  0.00000000E+00  0.00000000E+00
  0.00000000E+00  0.00000000E+00  0.00000000E+00
  0.00000000E+00  0.00000000E+00  0.00000000E+00
  0.00000000E+00  0.00000000E+00  0.00000000E+00
  0.00000000E+00  0.00000000E+00  0.00000000E+00
  0.00000000E+00  0.00000000E+00  0.00000000E+00
  0.00000000E+00  0.00000000E+00  0.00000000E+00
  0.00000000E+00  0.00000000E+00  0.00000000E+00
  0.00000000E+00  0.00000000E+00  0.00000000E+00
  0.00000000E+00  0.00000000E+00  0.00000000E+00
  0.00000000E+00  0.00000000E+00  0.00000000E+00
  0.00000000E+00  0.00000000E+00  0.00000000E+00
  0.00000000E+00  0.00000000E+00  0.00000000E+00
  0.00000000E+00  0.00000000E+00  0.00000000E+00
  0.00000000E+00  0.00000000E+00  0.00000000E+00
  0.00000000E+00  0.00000000E+00  0.00000000E+00
  0.00000000E+00  0.00000000E+00  0.00000000E+00
  0.00000000E+00  0.00000000E+00  0.00000000E+00
  0.00000000E+00  0.00000000E+00  0.00000000E+00
  0.00000000E+00  0.00000000E+00  0.00000000E+00
  0.00000000E+00  0.00000000E+00  0.00000000E+00
  0.00000000E+00  0.00000000E+00  0.00000000E+00
  0.00000000E+00  0.00000000E+00  0.00000000E+00
  0.00000000E+00  0.00000000E+00  0.00000000E+00
  0.00000000E+00  0.00000000E+00  0.00000000E+00
  0.00000000E+00  0.00000000E+00  0.00000000E+00
  0.00000000E+00  0.00000000E+00  0.00000000E+00
  0.00000000E+00  0.00000000E+00  0.00000000E+00
  0.00000000E+00  0.00000000E+00  0.00000000E+00
  0.00000000E+00  0.00000000E+00  0.00000000E+00
  0.00000000E+00  0.00000000E+00  0.00000000E+00
  0.00000000E+00  0.00000000E+00  0.00000000E+00
  0.00000000E+00  0.00000000E+00  0.00000000E+00
  0.00000000E+00  0.00000000E+00  0.00000000E+00
  0.00000000E+00  0.00000000E+00  0.00000000E+00
  0.00000000E+00  0.00000000E+00  0.00000000E+00
  0.00000000E+00  0.00000000E+00  0.00000000E+00
  0.00000000E+00  0.00000000E+00  0.00000000E+00
  0.00000000E+00  0.00000000E+00  0.00000000E+00
  0.00000000E+00  0.00000000E+00  0.00000000E+00
  0.00000000E+00  0.00000000E+00  0.00000000E+00
  0.00000000E+00  0.00000000E+00  0.00000000E+00
  0.00000000E+00  0.00000000E+00  0.00000000E+00
  0.00000000E+00  0.00000000E+00  0.00000000E+00
  0.00000000E+00  0.00000000E+00  0.00000000E+00
  0.00000000E+00  0.00000000E+00  0.00000000E+00
  0.00000000E+00  0.00000000E+00  0.00000000E+00
  0.00000000E+00  0.00000000E+00  0.00000000E+00
  0.00000000E+00  0.00000000E+00  0.00000000E+00
  0.00000000E+00  0.00000000E+00  0.00000000E+00
  0.00000000E+00  0.00000000E+00  0.00000000E+00
  0.00000000E+00  0.00000000E+00  0.00000000E+00
  0.00000000E+00  0.00000000E+00  0.00000000E+00
  0.00000000E+00  0.00000000E+00  0.00000000E+00
  0.00000000E+00  0.00000000E+00  0.00000000E+00
  0.00000000E+00  0.00000000E+00  0.00000000E+00
  0.00000000E+00  0.00000000E+00  0.00000000E+00
  0.00000000E+00  0.00000000E+00  0.00000000E+00
  0.00000000E+00  0.00000000E+00  0.00000000E+00
  0.00000000E+00  0.00000000E+00  0.00000000E+00
  0.00000000E+00  0.00000000E+00  0.00000000E+00
  0.00000000E+00  0.00000000E+00  0.00000000E+00
  0.00000000E+00  0.00000000E+00  0.00000000E+00
  0.00000000E+00  0.00000000E+00  0.00000000E+00
  0.00000000E+00  0.00000000E+00  0.00000000E+00
  0.00000000E+00  0.00000000E+00  0.00000000E+00
  0.00000000E+00  0.00000000E+00  0.00000000E+00
  0.00000000E+00  0.00000000E+00  0.00000000E+00
  0.00000000E+00  0.00000000E+00  0.00000000E+00
  0.00000000E+00  0.00000000E+00  0.00000000E+00
  0.00000000E+00  0.00000000E+00  0.00000000E+00
  0.00000000E+00  0.00000000E+00  0.00000000E+00
  0.00000000E+00  0.00000000E+00  0.00000000E+00
  0.00000000E+00  0.00000000E+00  0.00000000E+00
  0.00000000E+00  0.00000000E+00  0.00000000E+00
  0.00000000E+00  0.00000000E+00  0.00000000E+00
  0.00000000E+00  0.00000000E+00  0.00000000E+00
  0.00000000E+00  0.00000000E+00  0.00000000E+00
  0.00000000E+00  0.00000000E+00  0.00000000E+00
  0.00000000E+00  0.00000000E+00  0.00000000E+00
  0.00000000E+00  0.00000000E+00  0.00000000E+00
  0.00000000E+00  0.00000000E+00  0.00000000E+00
  0.00000000E+00  0.00000000E+00  0.00000000E+00
  0.00000000E+00  0.00000000E+00  0.00000000E+00
  0.00000000E+00  0.00000000E+00  0.00000000E+00
  0.00000000E+00  0.00000000E+00  0.00000000E+00
  0.00000000E+00  0.00000000E+00  0.00000000E+00
  0.00000000E+00  0.00000000E+00  0.00000000E+00
  0.00000000E+00  0.00000000E+00  0.00000000E+00
  0.00000000E+00  0.00000000E+00  0.00000000E+00
  0.00000000E+00  0.00000000E+00  0.00000000E+00
  0.00000000E+00  0.00000000E+00  0.00000000E+00
  0.00000000E+00  0.00000000E+00  0.00000000E+00
