B N C F O                               
   1.00000000000000     
     7.5365500567000003  -13.0537460594369996    0.0000000000000000
     7.5365500567000003   13.0537460594369996    0.0000000000000000
     0.0000000000000000    0.0000000000000000   35.1146643855649998
   B    N    C    F    O 
    36    36     5     9     2
Selective dynamics
Direct
  0.1095511327948682  0.0527625871343841  0.4963116657080823   T   T   T
  0.1095609877079471  0.2194286210197167  0.4961879118656951   T   T   T
  0.1096135527901754  0.3860849971387023  0.4961811485156480   T   T   T
  0.1096092349228306  0.5527562087290345  0.4964016326697632   T   T   T
  0.1095688179266673  0.7194128792649364  0.4964232474949466   T   T   T
  0.1095518715547183  0.8860897422584626  0.4963606251987226   T   T   T
  0.2762302465200182  0.0527633469022811  0.4962580276975239   T   T   T
  0.2762284327043854  0.2194426323243349  0.4959372139380497   T   T   T
  0.2762380881096619  0.3861350410751950  0.4954057314166221   T   T   T
  0.2763469985701998  0.5527658050613881  0.4958365030782426   T   T   T
  0.2763155550716762  0.7194292487794843  0.4962634013056341   T   T   T
  0.2762083345755306  0.8860602661095813  0.4963604334092953   T   T   T
  0.4428732907766088  0.0527460056670287  0.4962930960629606   T   T   T
  0.4428886162700383  0.2194298240151492  0.4958608990254951   T   T   T
  0.4428480212356105  0.3861176380482311  0.4949895283011758   T   T   T
  0.4428352551717880  0.5527994954995250  0.4945298063430861   T   T   T
  0.4428719243122746  0.7192981468415802  0.4959658135175439   T   T   T
  0.4428583407073672  0.8859917896333305  0.4962607292667902   T   T   T
  0.6095133522354936  0.0527047194883294  0.4962786684208111   T   T   T
  0.6095271821145036  0.2194118482782816  0.4960721541726786   T   T   T
  0.6095242912412497  0.3860722491424587  0.4955027535434798   T   T   T
  0.6094970257785753  0.5528068588703603  0.4949292639006555   T   T   T
  0.6094241041000756  0.7194010287564571  0.4951809377156111   T   T   T
  0.6094689060334461  0.8859760773802855  0.4959042191952805   T   T   T
  0.7761873322218048  0.0527241440520719  0.4962138079586084   T   T   T
  0.7762108248547630  0.2194039406132832  0.4962755338583322   T   T   T
  0.7761982753066343  0.3860692874554100  0.4962166507969482   T   T   T
  0.7761923624693325  0.5527523087711537  0.4960167991132651   T   T   T
  0.7761865383740880  0.7194263497767406  0.4959101904733340   T   T   T
  0.7761682478865100  0.8860615372554300  0.4960574980218020   T   T   T
  0.9428703789275199  0.0527563228389010  0.4963197721983333   T   T   T
  0.9428819414266519  0.2194005362146741  0.4963080904140699   T   T   T
  0.9428987408868564  0.3860661684306406  0.4964174365608658   T   T   T
  0.9428836225061435  0.5527486747928543  0.4964456480316172   T   T   T
  0.9428687182420508  0.7194156206426098  0.4963387878443205   T   T   T
  0.9428719324898932  0.8860906008993685  0.4963113067329911   T   T   T
  0.0539919892214505  0.1083099750189826  0.4963188997539381   T   T   T
  0.0539918604739105  0.2749526760985487  0.4962397014706155   T   T   T
  0.0540120722074056  0.4416185926543380  0.4963981639027574   T   T   T
  0.0539944490862750  0.6082906708396297  0.4964671324778233   T   T   T
  0.0539893720557010  0.7749659404970359  0.4963811088122977   T   T   T
  0.0539910623709689  0.9416423618661509  0.4963503092513186   T   T   T
  0.2206796334410692  0.1083254216463480  0.4962067572931924   T   T   T
  0.2206834735984361  0.2749939696441889  0.4959082739732034   T   T   T
  0.2206565936265169  0.4416008833880340  0.4957535140968774   T   T   T
  0.2206969428721328  0.6083026967390602  0.4961891286988444   T   T   T
  0.2206689308274145  0.7749589356341341  0.4963702851150548   T   T   T
  0.2206639447075416  0.9416418644702501  0.4963321021962805   T   T   T
  0.3873324543940300  0.1083249890796263  0.4962006852830381   T   T   T
  0.3873557302606875  0.2750157051532807  0.4956695160046256   T   T   T
  0.3873159310357590  0.4416405275751716  0.4945288552614700   T   T   T
  0.3872864006515492  0.6081964312100828  0.4949331520817271   T   T   T
  0.3873347317176824  0.7749618550900697  0.4961001426851284   T   T   T
  0.3873218934771541  0.9416227267182304  0.4963392071204596   T   T   T
  0.5539724072740497  0.1083002281662650  0.4962642329442742   T   T   T
  0.5539818013726351  0.2749759669030372  0.4957044407177497   T   T   T
  0.5539808858356806  0.4416705235314438  0.4949912718303298   T   T   T
  0.5539493125286837  0.6083044891100571  0.4943760099569386   T   T   T
  0.5539919599207328  0.7749786526742467  0.4953311184720711   T   T   T
  0.5539787788747099  0.9416189948063033  0.4962176533374888   T   T   T
  0.7206397144112685  0.1082902742222466  0.4962342393265773   T   T   T
  0.7206417279379062  0.2749657162595348  0.4962062803973520   T   T   T
  0.7206094111397081  0.4416192065038016  0.4959606599363472   T   T   T
  0.7206108491360746  0.6082863355472623  0.4956786745443441   T   T   T
  0.7205952769609194  0.7749331130357338  0.4957725200858636   T   T   T
  0.7206248329899658  0.9416180202486514  0.4960585064031080   T   T   T
  0.8873082304808262  0.1082937743131422  0.4962801588335597   T   T   T
  0.8873199940898416  0.2749502217174525  0.4963258637892168   T   T   T
  0.8873165961751827  0.4416233278345372  0.4964097300386165   T   T   T
  0.8872962267265990  0.6082910019727413  0.4963478017922506   T   T   T
  0.8873082002939426  0.7749652219180597  0.4962440369254577   T   T   T
  0.8872969082723801  0.9416294762394213  0.4962681292586668   T   T   T
  0.5982615395782490  0.4189657559369225  0.6065899587251439   T   T   T
  0.5395950008887691  0.4634785892961599  0.6281425980770551   T   T   T
  0.4974100496219946  0.5181962849184933  0.6028835651709448   T   T   T
  0.4545358125000423  0.5786207129477293  0.6238582947216935   T   T   T
  0.3957232399215846  0.6135476798202573  0.5967234810871215   T   T   T
  0.6837332436306137  0.4928268082824547  0.5903208224191431   T   T   T
  0.5387483956422946  0.3531414444987530  0.5795749958830776   T   T   T
  0.4606100356771531  0.3840735233588626  0.6463511658569793   T   T   T
  0.6044237042222128  0.5299453965957940  0.6544666876887753   T   T   T
  0.5739484327488464  0.5840847397622424  0.5794581798628613   T   T   T
  0.4214420646232420  0.4453891546019761  0.5809838648531821   T   T   T
  0.3919167630767384  0.5175868593323167  0.6523245147744255   T   T   T
  0.5348018279034531  0.6613501992642643  0.6408170647248869   T   T   T
  0.6243311724044992  0.3685481192355534  0.6314977481388666   T   T   T
  0.4502629583439647  0.6969450570881042  0.5802982430637800   T   T   T
  0.3016747053614664  0.5544780625233473  0.5942154562350168   T   T   T
 
  0.00000000E+00  0.00000000E+00  0.00000000E+00
  0.00000000E+00  0.00000000E+00  0.00000000E+00
  0.00000000E+00  0.00000000E+00  0.00000000E+00
  0.00000000E+00  0.00000000E+00  0.00000000E+00
  0.00000000E+00  0.00000000E+00  0.00000000E+00
  0.00000000E+00  0.00000000E+00  0.00000000E+00
  0.00000000E+00  0.00000000E+00  0.00000000E+00
  0.00000000E+00  0.00000000E+00  0.00000000E+00
  0.00000000E+00  0.00000000E+00  0.00000000E+00
  0.00000000E+00  0.00000000E+00  0.00000000E+00
  0.00000000E+00  0.00000000E+00  0.00000000E+00
  0.00000000E+00  0.00000000E+00  0.00000000E+00
  0.00000000E+00  0.00000000E+00  0.00000000E+00
  0.00000000E+00  0.00000000E+00  0.00000000E+00
  0.00000000E+00  0.00000000E+00  0.00000000E+00
  0.00000000E+00  0.00000000E+00  0.00000000E+00
  0.00000000E+00  0.00000000E+00  0.00000000E+00
  0.00000000E+00  0.00000000E+00  0.00000000E+00
  0.00000000E+00  0.00000000E+00  0.00000000E+00
  0.00000000E+00  0.00000000E+00  0.00000000E+00
  0.00000000E+00  0.00000000E+00  0.00000000E+00
  0.00000000E+00  0.00000000E+00  0.00000000E+00
  0.00000000E+00  0.00000000E+00  0.00000000E+00
  0.00000000E+00  0.00000000E+00  0.00000000E+00
  0.00000000E+00  0.00000000E+00  0.00000000E+00
  0.00000000E+00  0.00000000E+00  0.00000000E+00
  0.00000000E+00  0.00000000E+00  0.00000000E+00
  0.00000000E+00  0.00000000E+00  0.00000000E+00
  0.00000000E+00  0.00000000E+00  0.00000000E+00
  0.00000000E+00  0.00000000E+00  0.00000000E+00
  0.00000000E+00  0.00000000E+00  0.00000000E+00
  0.00000000E+00  0.00000000E+00  0.00000000E+00
  0.00000000E+00  0.00000000E+00  0.00000000E+00
  0.00000000E+00  0.00000000E+00  0.00000000E+00
  0.00000000E+00  0.00000000E+00  0.00000000E+00
  0.00000000E+00  0.00000000E+00  0.00000000E+00
  0.00000000E+00  0.00000000E+00  0.00000000E+00
  0.00000000E+00  0.00000000E+00  0.00000000E+00
  0.00000000E+00  0.00000000E+00  0.00000000E+00
  0.00000000E+00  0.00000000E+00  0.00000000E+00
  0.00000000E+00  0.00000000E+00  0.00000000E+00
  0.00000000E+00  0.00000000E+00  0.00000000E+00
  0.00000000E+00  0.00000000E+00  0.00000000E+00
  0.00000000E+00  0.00000000E+00  0.00000000E+00
  0.00000000E+00  0.00000000E+00  0.00000000E+00
  0.00000000E+00  0.00000000E+00  0.00000000E+00
  0.00000000E+00  0.00000000E+00  0.00000000E+00
  0.00000000E+00  0.00000000E+00  0.00000000E+00
  0.00000000E+00  0.00000000E+00  0.00000000E+00
  0.00000000E+00  0.00000000E+00  0.00000000E+00
  0.00000000E+00  0.00000000E+00  0.00000000E+00
  0.00000000E+00  0.00000000E+00  0.00000000E+00
  0.00000000E+00  0.00000000E+00  0.00000000E+00
  0.00000000E+00  0.00000000E+00  0.00000000E+00
  0.00000000E+00  0.00000000E+00  0.00000000E+00
  0.00000000E+00  0.00000000E+00  0.00000000E+00
  0.00000000E+00  0.00000000E+00  0.00000000E+00
  0.00000000E+00  0.00000000E+00  0.00000000E+00
  0.00000000E+00  0.00000000E+00  0.00000000E+00
  0.00000000E+00  0.00000000E+00  0.00000000E+00
  0.00000000E+00  0.00000000E+00  0.00000000E+00
  0.00000000E+00  0.00000000E+00  0.00000000E+00
  0.00000000E+00  0.00000000E+00  0.00000000E+00
  0.00000000E+00  0.00000000E+00  0.00000000E+00
  0.00000000E+00  0.00000000E+00  0.00000000E+00
  0.00000000E+00  0.00000000E+00  0.00000000E+00
  0.00000000E+00  0.00000000E+00  0.00000000E+00
  0.00000000E+00  0.00000000E+00  0.00000000E+00
  0.00000000E+00  0.00000000E+00  0.00000000E+00
  0.00000000E+00  0.00000000E+00  0.00000000E+00
  0.00000000E+00  0.00000000E+00  0.00000000E+00
  0.00000000E+00  0.00000000E+00  0.00000000E+00
  0.00000000E+00  0.00000000E+00  0.00000000E+00
  0.00000000E+00  0.00000000E+00  0.00000000E+00
  0.00000000E+00  0.00000000E+00  0.00000000E+00
  0.00000000E+00  0.00000000E+00  0.00000000E+00
  0.00000000E+00  0.00000000E+00  0.00000000E+00
  0.00000000E+00  0.00000000E+00  0.00000000E+00
  0.00000000E+00  0.00000000E+00  0.00000000E+00
  0.00000000E+00  0.00000000E+00  0.00000000E+00
  0.00000000E+00  0.00000000E+00  0.00000000E+00
  0.00000000E+00  0.00000000E+00  0.00000000E+00
  0.00000000E+00  0.00000000E+00  0.00000000E+00
  0.00000000E+00  0.00000000E+00  0.00000000E+00
  0.00000000E+00  0.00000000E+00  0.00000000E+00
  0.00000000E+00  0.00000000E+00  0.00000000E+00
  0.00000000E+00  0.00000000E+00  0.00000000E+00
  0.00000000E+00  0.00000000E+00  0.00000000E+00
