B N                                     
   1.00000000000000     
     5.0243667044670000   -8.7024973729579997    0.0000000000000000
     5.0243667044670000    8.7024973729579997    0.0000000000000000
     0.0000000000000000    0.0000000000000000   35.1146643855649998
   B    N 
    17    15
Selective dynamics
Direct
  0.1632021319848950  0.0807101031511955  0.5000000000000000   T   T   T
  0.1632021319848950  0.3324925885176963  0.5000000000000000   T   T   T
  0.1665991472854428  0.5831978558418823  0.5000000000000000   T   T   T
  0.1665991472854428  0.8334018511255609  0.5000000000000000   T   T   T
  0.4165722383961728  0.0831440380643512  0.5000000000000000   T   T   T
  0.4013755602471895  0.3256880599650923  0.5000000000000000   T   T   T
  0.4165722383961728  0.5834287600148309  0.5000000000000000   T   T   T
  0.4168031425691215  0.8334018511255609  0.5000000000000000   T   T   T
  0.6675084098933002  0.0807101031511955  0.5000000000000000   T   T   T
  0.6743129384459045  0.3256880599650923  0.5000000000000000   T   T   T
  0.6743129384459045  0.5986254381638071  0.5000000000000000   T   T   T
  0.6675084098933002  0.8367988664261016  0.5000000000000000   T   T   T
  0.9166671457129993  0.0833338526979972  0.5000000000000000   T   T   T
  0.9192908952598010  0.3324925885176963  0.5000000000000000   T   T   T
  0.9168569603466524  0.5834287600148309  0.5000000000000000   T   T   T
  0.9192908952598010  0.8367988664261016  0.5000000000000000   T   T   T
  0.5833338526979972  0.4166671457129993  0.5000000000000000   T   T   T
  0.0820371812585384  0.1660188099932628  0.5000000000000000   T   T   T
  0.0834498361851282  0.4168991126872401  0.5000000000000000   T   T   T
  0.0833289495722655  0.6666646941496326  0.5000000000000000   T   T   T
  0.0834498361851282  0.9165511622258683  0.5000000000000000   T   T   T
  0.3269380882268083  0.1617182917722688  0.5000000000000000   T   T   T
  0.3269380882268083  0.4152202351825410  0.5000000000000000   T   T   T
  0.3333363042613640  0.6666646941496326  0.5000000000000000   T   T   T
  0.3333363042613640  0.9166720488387381  0.5000000000000000   T   T   T
  0.5847807632284555  0.1617182917722688  0.5000000000000000   T   T   T
  0.5847807632284555  0.6730629101841883  0.5000000000000000   T   T   T
  0.5831018857237565  0.9165511622258683  0.5000000000000000   T   T   T
  0.8339821884177337  0.1660188099932628  0.5000000000000000   T   T   T
  0.8382827066387347  0.4152202351825410  0.5000000000000000   T   T   T
  0.8382827066387347  0.6730629101841883  0.5000000000000000   T   T   T
  0.8339821884177337  0.9179638171524581  0.5000000000000000   T   T   T
 
  0.00000000E+00  0.00000000E+00  0.00000000E+00
  0.00000000E+00  0.00000000E+00  0.00000000E+00
  0.00000000E+00  0.00000000E+00  0.00000000E+00
  0.00000000E+00  0.00000000E+00  0.00000000E+00
  0.00000000E+00  0.00000000E+00  0.00000000E+00
  0.00000000E+00  0.00000000E+00  0.00000000E+00
  0.00000000E+00  0.00000000E+00  0.00000000E+00
  0.00000000E+00  0.00000000E+00  0.00000000E+00
  0.00000000E+00  0.00000000E+00  0.00000000E+00
  0.00000000E+00  0.00000000E+00  0.00000000E+00
  0.00000000E+00  0.00000000E+00  0.00000000E+00
  0.00000000E+00  0.00000000E+00  0.00000000E+00
  0.00000000E+00  0.00000000E+00  0.00000000E+00
  0.00000000E+00  0.00000000E+00  0.00000000E+00
  0.00000000E+00  0.00000000E+00  0.00000000E+00
  0.00000000E+00  0.00000000E+00  0.00000000E+00
  0.00000000E+00  0.00000000E+00  0.00000000E+00
  0.00000000E+00  0.00000000E+00  0.00000000E+00
  0.00000000E+00  0.00000000E+00  0.00000000E+00
  0.00000000E+00  0.00000000E+00  0.00000000E+00
  0.00000000E+00  0.00000000E+00  0.00000000E+00
  0.00000000E+00  0.00000000E+00  0.00000000E+00
  0.00000000E+00  0.00000000E+00  0.00000000E+00
  0.00000000E+00  0.00000000E+00  0.00000000E+00
  0.00000000E+00  0.00000000E+00  0.00000000E+00
  0.00000000E+00  0.00000000E+00  0.00000000E+00
  0.00000000E+00  0.00000000E+00  0.00000000E+00
  0.00000000E+00  0.00000000E+00  0.00000000E+00
  0.00000000E+00  0.00000000E+00  0.00000000E+00
  0.00000000E+00  0.00000000E+00  0.00000000E+00
  0.00000000E+00  0.00000000E+00  0.00000000E+00
  0.00000000E+00  0.00000000E+00  0.00000000E+00
