B H N O                                 
   1.00000000000000     
     0.0000000000000000   -8.7025000000000006    0.0000000000000000
    15.0000000000000000    0.0000000000000000    0.0000000000000000
     0.0000000000000000    0.0000000000000000   45.0000000000000000
   B    H    N    O 
    18     8    18     4
Selective dynamics
Direct
  0.3209168487541106  0.4959535231578944  0.3889072025491525   T   T   T
  0.3237284429817889  0.4985474147184663  0.4443471684823636   T   T   T
  0.3238055829748423  0.4994418982570001  0.5000000000000000   T   T   T
  0.3237284429817889  0.4985474147184663  0.5556528315176363   T   T   T
  0.3209168487541106  0.4959535231578944  0.6110927974508475   T   T   T
  0.8208961632099899  0.5051283029221610  0.3889324939147989   T   T   T
  0.8237280152981895  0.5011117255156644  0.4443553115398978   T   T   T
  0.8237975414912215  0.4999922192364193  0.5000000000000000   T   T   T
  0.8237280152981895  0.5011117255156644  0.5556446884601022   T   T   T
  0.8208961632099899  0.5051283029221610  0.6110675060852011   T   T   T
  0.0733836646464963  0.5018006131369283  0.4169393232287137   T   T   T
  0.0737998649304610  0.5002505341843696  0.4723050771492687   T   T   T
  0.0737998649304610  0.5002505341843696  0.5276949228507242   T   T   T
  0.0733836646464963  0.5018006131369283  0.5830606767712863   T   T   T
  0.5734081165337203  0.4981020779791031  0.4169327679725914   T   T   T
  0.5737996152231006  0.4992326724624845  0.4723036859699994   T   T   T
  0.5737996152231006  0.4992326724624845  0.5276963140300006   T   T   T
  0.5734081165337203  0.4981020779791031  0.5830672320274086   T   T   T
  0.0976263583112156  0.5020223053329550  0.3710939751315019   T   T   T
  0.0976263583112156  0.5020223053329550  0.6289060248684980   T   T   T
  0.5976916994504715  0.4989217620393595  0.3710867804271221   T   T   T
  0.5976916994504715  0.4989217620393595  0.6289132195728780   T   T   T
  0.3241268810519397  0.4912962169962641  0.3449483998813742   T   T   T
  0.8241242608881215  0.5127585254903633  0.3450193733783731   T   T   T
  0.3241268810519397  0.4912962169962641  0.6550516001186258   T   T   T
  0.8241242608881215  0.5127585254903633  0.6549806266216269   T   T   T
  0.1590877872451046  0.5004775609028058  0.3901627413879820   T   T   T
  0.1572476595677210  0.5001028546890255  0.4446915314542701   T   T   T
  0.1573388985709677  0.4998963330686683  0.5000000000000000   T   T   T
  0.1572476595677210  0.5001028546890255  0.5553084685457299   T   T   T
  0.1590877872451046  0.5004775609028058  0.6098372586120181   T   T   T
  0.6591563354138690  0.4996548736493857  0.3901608119386769   T   T   T
  0.6572432422927277  0.4994852108703111  0.4446906791000969   T   T   T
  0.6573313139584331  0.4995565042731180  0.5000000000000000   T   T   T
  0.6572432422927277  0.4994852108703111  0.5553093208999031   T   T   T
  0.6591563354138690  0.4996548736493857  0.6098391880613230   T   T   T
  0.4071526211337515  0.4964591739355030  0.4165106459210228   T   T   T
  0.4072625046914214  0.4990775894190232  0.4722153864667423   T   T   T
  0.4072625046914214  0.4990775894190232  0.5277846135332577   T   T   T
  0.4071526211337515  0.4964591739355030  0.5834893540789773   T   T   T
  0.9071506151707960  0.5036549923576382  0.4165274983843372   T   T   T
  0.9072643475954737  0.5003876389692082  0.4722186231493161   T   T   T
  0.9072643475954737  0.5003876389692082  0.5277813768506839   T   T   T
  0.9071506151707960  0.5036549923576382  0.5834725016156628   T   T   T
  0.3933945395616741  0.4910204741262821  0.3616857507376545   T   T   T
  0.8933545624341290  0.5121217202872055  0.3617610365039546   T   T   T
  0.3933945395616741  0.4910204741262821  0.6383142492623455   T   T   T
  0.8933545624341290  0.5121217202872055  0.6382389634960454   T   T   T
 
  0.00000000E+00  0.00000000E+00  0.00000000E+00
  0.00000000E+00  0.00000000E+00  0.00000000E+00
  0.00000000E+00  0.00000000E+00  0.00000000E+00
  0.00000000E+00  0.00000000E+00  0.00000000E+00
  0.00000000E+00  0.00000000E+00  0.00000000E+00
  0.00000000E+00  0.00000000E+00  0.00000000E+00
  0.00000000E+00  0.00000000E+00  0.00000000E+00
  0.00000000E+00  0.00000000E+00  0.00000000E+00
  0.00000000E+00  0.00000000E+00  0.00000000E+00
  0.00000000E+00  0.00000000E+00  0.00000000E+00
  0.00000000E+00  0.00000000E+00  0.00000000E+00
  0.00000000E+00  0.00000000E+00  0.00000000E+00
  0.00000000E+00  0.00000000E+00  0.00000000E+00
  0.00000000E+00  0.00000000E+00  0.00000000E+00
  0.00000000E+00  0.00000000E+00  0.00000000E+00
  0.00000000E+00  0.00000000E+00  0.00000000E+00
  0.00000000E+00  0.00000000E+00  0.00000000E+00
  0.00000000E+00  0.00000000E+00  0.00000000E+00
  0.00000000E+00  0.00000000E+00  0.00000000E+00
  0.00000000E+00  0.00000000E+00  0.00000000E+00
  0.00000000E+00  0.00000000E+00  0.00000000E+00
  0.00000000E+00  0.00000000E+00  0.00000000E+00
  0.00000000E+00  0.00000000E+00  0.00000000E+00
  0.00000000E+00  0.00000000E+00  0.00000000E+00
  0.00000000E+00  0.00000000E+00  0.00000000E+00
  0.00000000E+00  0.00000000E+00  0.00000000E+00
  0.00000000E+00  0.00000000E+00  0.00000000E+00
  0.00000000E+00  0.00000000E+00  0.00000000E+00
  0.00000000E+00  0.00000000E+00  0.00000000E+00
  0.00000000E+00  0.00000000E+00  0.00000000E+00
  0.00000000E+00  0.00000000E+00  0.00000000E+00
  0.00000000E+00  0.00000000E+00  0.00000000E+00
  0.00000000E+00  0.00000000E+00  0.00000000E+00
  0.00000000E+00  0.00000000E+00  0.00000000E+00
  0.00000000E+00  0.00000000E+00  0.00000000E+00
  0.00000000E+00  0.00000000E+00  0.00000000E+00
  0.00000000E+00  0.00000000E+00  0.00000000E+00
  0.00000000E+00  0.00000000E+00  0.00000000E+00
  0.00000000E+00  0.00000000E+00  0.00000000E+00
  0.00000000E+00  0.00000000E+00  0.00000000E+00
  0.00000000E+00  0.00000000E+00  0.00000000E+00
  0.00000000E+00  0.00000000E+00  0.00000000E+00
  0.00000000E+00  0.00000000E+00  0.00000000E+00
  0.00000000E+00  0.00000000E+00  0.00000000E+00
  0.00000000E+00  0.00000000E+00  0.00000000E+00
  0.00000000E+00  0.00000000E+00  0.00000000E+00
  0.00000000E+00  0.00000000E+00  0.00000000E+00
  0.00000000E+00  0.00000000E+00  0.00000000E+00
