B N C F O                               
   1.00000000000000     
     7.5365500567000003  -13.0537460594369996    0.0000000000000000
     7.5365500567000003   13.0537460594369996    0.0000000000000000
     0.0000000000000000    0.0000000000000000   35.1146643855649998
   B    N    C    F    O 
    36    36     3     5     2
Selective dynamics
Direct
  0.1111086243197761  0.0555561409189949  0.5000091807920199   T   T   T
  0.1111116466143756  0.2222261534483536  0.4999729588457882   T   T   T
  0.1111205084650351  0.3888932014858710  0.4999349683100007   T   T   T
  0.1111154397057632  0.5555542047829078  0.4999819677573285   T   T   T
  0.1111123634802453  0.7222212849438989  0.5000147628191272   T   T   T
  0.1111111283061987  0.8888894736861346  0.5000185654762817   T   T   T
  0.2777782204183907  0.0555551868609072  0.5000149369621028   T   T   T
  0.2777742335590290  0.2222226709154569  0.4999594362301494   T   T   T
  0.2777805919780505  0.3889044757436864  0.4998770124009013   T   T   T
  0.2777805339969461  0.5555485446687598  0.4999118169125651   T   T   T
  0.2777779747943470  0.7222167729433906  0.4999927344814878   T   T   T
  0.2777779265460225  0.8888871369828308  0.5000219458986734   T   T   T
  0.4444447739186899  0.0555550459619241  0.5000217265841016   T   T   T
  0.4444444381098123  0.2222238014670879  0.5000003065165686   T   T   T
  0.4444433851747362  0.3889027861270691  0.4999149550050959   T   T   T
  0.4444351117314582  0.5555438277579015  0.4999085833585397   T   T   T
  0.4444410245019981  0.7222111068371433  0.4999649273328970   T   T   T
  0.4444436393838345  0.8888844582338322  0.5000130407910035   T   T   T
  0.6111110676275118  0.0555540130358452  0.5000158591284176   T   T   T
  0.6111113837222888  0.2222231359541595  0.5000165159903389   T   T   T
  0.6111076887416047  0.3888932452843576  0.4999883649500134   T   T   T
  0.6111023512107181  0.5555552296825610  0.4999593919486287   T   T   T
  0.6111033587775125  0.7222126154768134  0.4999753149049155   T   T   T
  0.6111088293819975  0.8888832413010235  0.5000069027410845   T   T   T
  0.7777792941077166  0.0555548898413107  0.5000155348330537   T   T   T
  0.7777797752655076  0.2222237037127641  0.5000149127603422   T   T   T
  0.7777772469875828  0.3888907609337267  0.5000188829207133   T   T   T
  0.7777740108735713  0.5555557148955899  0.5000065732245460   T   T   T
  0.7777732421905270  0.7222191616580744  0.5000047455281162   T   T   T
  0.7777753111231434  0.8888849927713522  0.5000161279636828   T   T   T
  0.9444451931261142  0.0555566618334069  0.5000149573520005   T   T   T
  0.9444494777944925  0.2222246534062791  0.4999976367900345   T   T   T
  0.9444493504005820  0.3888913381420380  0.5000041439570850   T   T   T
  0.9444449849412990  0.5555558270034595  0.5000177979378435   T   T   T
  0.9444431744093009  0.7222214283078614  0.5000162876804524   T   T   T
  0.9444435583880590  0.8888884811745754  0.5000198869690564   T   T   T
  0.0555559933561511  0.1111118371468436  0.4999970893148529   T   T   T
  0.0555563360984905  0.2777778637570236  0.4999569235469750   T   T   T
  0.0555554546419970  0.4444445271061070  0.4999678696423970   T   T   T
  0.0555562258239632  0.6111111160699636  0.5000062860509757   T   T   T
  0.0555558481051222  0.7777779047931972  0.5000138475969464   T   T   T
  0.0555554644716238  0.9444445554476388  0.5000149899941277   T   T   T
  0.2222219140878892  0.1111103926400574  0.4999949913735620   T   T   T
  0.2222245429435432  0.2777792568719306  0.4999258351199671   T   T   T
  0.2222186956063865  0.4444458132288673  0.4998408127456102   T   T   T
  0.2222232053723090  0.6111106695318398  0.4999541163118408   T   T   T
  0.2222229550068633  0.7777773511546187  0.5000122515781058   T   T   T
  0.2222227333066158  0.9444443310982606  0.5000177228339453   T   T   T
  0.3888891699924670  0.1111119442282771  0.5000135449103098   T   T   T
  0.3888858614684167  0.2777790449881934  0.4999552467970148   T   T   T
  0.3888793642256303  0.4444337721922267  0.4998277471483377   T   T   T
  0.3888890907935547  0.6111084224278827  0.4998982663731155   T   T   T
  0.3888892808113695  0.7777764083151695  0.4999886489254664   T   T   T
  0.3888894895397286  0.9444442977940426  0.5000200962088783   T   T   T
  0.5555557723159197  0.1111112276408051  0.5000151238915223   T   T   T
  0.5555538642514293  0.2777777513032333  0.5000011580738075   T   T   T
  0.5555531760675905  0.4444435382164897  0.4999340568026014   T   T   T
  0.5555499080279560  0.6111073535458402  0.4999234811303097   T   T   T
  0.5555550390697448  0.7777766458889346  0.4999778461874627   T   T   T
  0.5555556918269176  0.9444437195912130  0.5000104970221457   T   T   T
  0.7222226709835127  0.1111111532746065  0.5000105279366807   T   T   T
  0.7222220496308864  0.2777779979438719  0.5000156875786672   T   T   T
  0.7222211371271570  0.4444443958267144  0.5000030814931335   T   T   T
  0.7222197057439956  0.6111101348114474  0.4999858279015186   T   T   T
  0.7222202819561190  0.7777759486588778  0.4999982826311395   T   T   T
  0.7222221314169062  0.9444436989379668  0.5000124185807380   T   T   T
  0.8888892329068057  0.1111111128042168  0.5000087596786287   T   T   T
  0.8888896270457067  0.2777781607742469  0.5000032760389175   T   T   T
  0.8888887448160290  0.4444446987522923  0.5000170803076784   T   T   T
  0.8888882496922363  0.6111110092419878  0.5000139775485763   T   T   T
  0.8888881177262604  0.7777773371652899  0.5000127386858750   T   T   T
  0.8888885539665736  0.9444440284750684  0.5000187211368399   T   T   T
  0.3724870083875800  0.3136547441743076  0.6730952871063849   T   T   T
  0.3536898509134829  0.3170068574871152  0.6302680900717093   T   T   T
  0.3424559648089414  0.4099286656771852  0.6178898400577282   T   T   T
  0.4609460705027359  0.3957840353203750  0.6838623222311497   T   T   T
  0.3772994571467834  0.2292217973286839  0.6819056340767702   T   T   T
  0.2959926046415404  0.3118547812024133  0.6934187471251931   T   T   T
  0.4338409016257074  0.3172396935227084  0.6118600896058908   T   T   T
  0.2678569444131682  0.2262047523284636  0.6216656110067191   T   T   T
  0.4247181827364344  0.4911712071346628  0.6125894071513258   T   T   T
  0.2531376321765109  0.3936836135914774  0.6153177302725013   T   T   T
 
  0.00000000E+00  0.00000000E+00  0.00000000E+00
  0.00000000E+00  0.00000000E+00  0.00000000E+00
  0.00000000E+00  0.00000000E+00  0.00000000E+00
  0.00000000E+00  0.00000000E+00  0.00000000E+00
  0.00000000E+00  0.00000000E+00  0.00000000E+00
  0.00000000E+00  0.00000000E+00  0.00000000E+00
  0.00000000E+00  0.00000000E+00  0.00000000E+00
  0.00000000E+00  0.00000000E+00  0.00000000E+00
  0.00000000E+00  0.00000000E+00  0.00000000E+00
  0.00000000E+00  0.00000000E+00  0.00000000E+00
  0.00000000E+00  0.00000000E+00  0.00000000E+00
  0.00000000E+00  0.00000000E+00  0.00000000E+00
  0.00000000E+00  0.00000000E+00  0.00000000E+00
  0.00000000E+00  0.00000000E+00  0.00000000E+00
  0.00000000E+00  0.00000000E+00  0.00000000E+00
  0.00000000E+00  0.00000000E+00  0.00000000E+00
  0.00000000E+00  0.00000000E+00  0.00000000E+00
  0.00000000E+00  0.00000000E+00  0.00000000E+00
  0.00000000E+00  0.00000000E+00  0.00000000E+00
  0.00000000E+00  0.00000000E+00  0.00000000E+00
  0.00000000E+00  0.00000000E+00  0.00000000E+00
  0.00000000E+00  0.00000000E+00  0.00000000E+00
  0.00000000E+00  0.00000000E+00  0.00000000E+00
  0.00000000E+00  0.00000000E+00  0.00000000E+00
  0.00000000E+00  0.00000000E+00  0.00000000E+00
  0.00000000E+00  0.00000000E+00  0.00000000E+00
  0.00000000E+00  0.00000000E+00  0.00000000E+00
  0.00000000E+00  0.00000000E+00  0.00000000E+00
  0.00000000E+00  0.00000000E+00  0.00000000E+00
  0.00000000E+00  0.00000000E+00  0.00000000E+00
  0.00000000E+00  0.00000000E+00  0.00000000E+00
  0.00000000E+00  0.00000000E+00  0.00000000E+00
  0.00000000E+00  0.00000000E+00  0.00000000E+00
  0.00000000E+00  0.00000000E+00  0.00000000E+00
  0.00000000E+00  0.00000000E+00  0.00000000E+00
  0.00000000E+00  0.00000000E+00  0.00000000E+00
  0.00000000E+00  0.00000000E+00  0.00000000E+00
  0.00000000E+00  0.00000000E+00  0.00000000E+00
  0.00000000E+00  0.00000000E+00  0.00000000E+00
  0.00000000E+00  0.00000000E+00  0.00000000E+00
  0.00000000E+00  0.00000000E+00  0.00000000E+00
  0.00000000E+00  0.00000000E+00  0.00000000E+00
  0.00000000E+00  0.00000000E+00  0.00000000E+00
  0.00000000E+00  0.00000000E+00  0.00000000E+00
  0.00000000E+00  0.00000000E+00  0.00000000E+00
  0.00000000E+00  0.00000000E+00  0.00000000E+00
  0.00000000E+00  0.00000000E+00  0.00000000E+00
  0.00000000E+00  0.00000000E+00  0.00000000E+00
  0.00000000E+00  0.00000000E+00  0.00000000E+00
  0.00000000E+00  0.00000000E+00  0.00000000E+00
  0.00000000E+00  0.00000000E+00  0.00000000E+00
  0.00000000E+00  0.00000000E+00  0.00000000E+00
  0.00000000E+00  0.00000000E+00  0.00000000E+00
  0.00000000E+00  0.00000000E+00  0.00000000E+00
  0.00000000E+00  0.00000000E+00  0.00000000E+00
  0.00000000E+00  0.00000000E+00  0.00000000E+00
  0.00000000E+00  0.00000000E+00  0.00000000E+00
  0.00000000E+00  0.00000000E+00  0.00000000E+00
  0.00000000E+00  0.00000000E+00  0.00000000E+00
  0.00000000E+00  0.00000000E+00  0.00000000E+00
  0.00000000E+00  0.00000000E+00  0.00000000E+00
  0.00000000E+00  0.00000000E+00  0.00000000E+00
  0.00000000E+00  0.00000000E+00  0.00000000E+00
  0.00000000E+00  0.00000000E+00  0.00000000E+00
  0.00000000E+00  0.00000000E+00  0.00000000E+00
  0.00000000E+00  0.00000000E+00  0.00000000E+00
  0.00000000E+00  0.00000000E+00  0.00000000E+00
  0.00000000E+00  0.00000000E+00  0.00000000E+00
  0.00000000E+00  0.00000000E+00  0.00000000E+00
  0.00000000E+00  0.00000000E+00  0.00000000E+00
  0.00000000E+00  0.00000000E+00  0.00000000E+00
  0.00000000E+00  0.00000000E+00  0.00000000E+00
  0.00000000E+00  0.00000000E+00  0.00000000E+00
  0.00000000E+00  0.00000000E+00  0.00000000E+00
  0.00000000E+00  0.00000000E+00  0.00000000E+00
  0.00000000E+00  0.00000000E+00  0.00000000E+00
  0.00000000E+00  0.00000000E+00  0.00000000E+00
  0.00000000E+00  0.00000000E+00  0.00000000E+00
  0.00000000E+00  0.00000000E+00  0.00000000E+00
  0.00000000E+00  0.00000000E+00  0.00000000E+00
  0.00000000E+00  0.00000000E+00  0.00000000E+00
  0.00000000E+00  0.00000000E+00  0.00000000E+00
