B N                                     
   1.00000000000000     
     5.0243667044670000   -8.7024973729579997    0.0000000000000000
     5.0243667044670000    8.7024973729579997    0.0000000000000000
     0.0000000000000000    0.0000000000000000   35.1146643855649998
   B    N 
    16    15
Selective dynamics
Direct
  0.1687048650070992  0.0849418395690056  0.5000000000000000   T   T   T
  0.1687048650070992  0.3337635851220906  0.5000000000000000   T   T   T
  0.1667293040183268  0.5834581693076504  0.5000000000000000   T   T   T
  0.1667293040183268  0.8332716943926769  0.5000000000000000   T   T   T
  0.4164580341440846  0.0829156295601605  0.5000000000000000   T   T   T
  0.4262667232731839  0.3381336414780859  0.5000000000000000   T   T   T
  0.4164580341440846  0.5835429642669193  0.5000000000000000   T   T   T
  0.4165428291033464  0.8332716943926769  0.5000000000000000   T   T   T
  0.6662374132889060  0.0849418395690056  0.5000000000000000   T   T   T
  0.6618673569329105  0.3381336414780859  0.5000000000000000   T   T   T
  0.6618673569329105  0.5737342751378126  0.5000000000000000   T   T   T
  0.6662374132889060  0.8312961334038973  0.5000000000000000   T   T   T
  0.9166671457129993  0.0833338526979972  0.5000000000000000   T   T   T
  0.9150591588419911  0.3337635851220906  0.5000000000000000   T   T   T
  0.9170853688508430  0.5835429642669193  0.5000000000000000   T   T   T
  0.9150591588419911  0.8312961334038973  0.5000000000000000   T   T   T
  0.0843086120479514  0.1671545253879800  0.5000000000000000   T   T   T
  0.0833477805810841  0.4166950014791660  0.5000000000000000   T   T   T
  0.0833236968107220  0.6666620677688573  0.5000000000000000   T   T   T
  0.0833477805810841  0.9166532178299124  0.5000000000000000   T   T   T
  0.3383805246644621  0.1705157674300735  0.5000000000000000   T   T   T
  0.3383805246644621  0.4178651959623901  0.5000000000000000   T   T   T
  0.3333389306421393  0.6666620677688573  0.5000000000000000   T   T   T
  0.3333389306421393  0.9166773016002817  0.5000000000000000   T   T   T
  0.5821358024486065  0.1705157674300735  0.5000000000000000   T   T   T
  0.5821358024486065  0.6616204737465345  0.5000000000000000   T   T   T
  0.5833059969318305  0.9166532178299124  0.5000000000000000   T   T   T
  0.8328464730230165  0.1671545253879800  0.5000000000000000   T   T   T
  0.8294852309809303  0.4178651959623901  0.5000000000000000   T   T   T
  0.8294852309809303  0.6616204737465345  0.5000000000000000   T   T   T
  0.8328464730230165  0.9156923863630451  0.5000000000000000   T   T   T
 
  0.00000000E+00  0.00000000E+00  0.00000000E+00
  0.00000000E+00  0.00000000E+00  0.00000000E+00
  0.00000000E+00  0.00000000E+00  0.00000000E+00
  0.00000000E+00  0.00000000E+00  0.00000000E+00
  0.00000000E+00  0.00000000E+00  0.00000000E+00
  0.00000000E+00  0.00000000E+00  0.00000000E+00
  0.00000000E+00  0.00000000E+00  0.00000000E+00
  0.00000000E+00  0.00000000E+00  0.00000000E+00
  0.00000000E+00  0.00000000E+00  0.00000000E+00
  0.00000000E+00  0.00000000E+00  0.00000000E+00
  0.00000000E+00  0.00000000E+00  0.00000000E+00
  0.00000000E+00  0.00000000E+00  0.00000000E+00
  0.00000000E+00  0.00000000E+00  0.00000000E+00
  0.00000000E+00  0.00000000E+00  0.00000000E+00
  0.00000000E+00  0.00000000E+00  0.00000000E+00
  0.00000000E+00  0.00000000E+00  0.00000000E+00
  0.00000000E+00  0.00000000E+00  0.00000000E+00
  0.00000000E+00  0.00000000E+00  0.00000000E+00
  0.00000000E+00  0.00000000E+00  0.00000000E+00
  0.00000000E+00  0.00000000E+00  0.00000000E+00
  0.00000000E+00  0.00000000E+00  0.00000000E+00
  0.00000000E+00  0.00000000E+00  0.00000000E+00
  0.00000000E+00  0.00000000E+00  0.00000000E+00
  0.00000000E+00  0.00000000E+00  0.00000000E+00
  0.00000000E+00  0.00000000E+00  0.00000000E+00
  0.00000000E+00  0.00000000E+00  0.00000000E+00
  0.00000000E+00  0.00000000E+00  0.00000000E+00
  0.00000000E+00  0.00000000E+00  0.00000000E+00
  0.00000000E+00  0.00000000E+00  0.00000000E+00
  0.00000000E+00  0.00000000E+00  0.00000000E+00
  0.00000000E+00  0.00000000E+00  0.00000000E+00
