B N C F O                               
   1.00000000000000     
    10.0487000000000002  -17.4050000000000011    0.0000000000000000
    10.0487000000000002   17.4050000000000011    0.0000000000000000
     0.0000000000000000    0.0000000000000000   35.0000000000000000
   B    N    C    F    O 
    64    64     3     5     2
Selective dynamics
Direct
  0.0832913701185944  0.0416786332764900  0.5016975903650476   T   T   T
  0.0832824710049209  0.1666761389692084  0.5017101367324628   T   T   T
  0.0832871129088488  0.2916812096367423  0.5016888880272390   T   T   T
  0.0832960635945525  0.4166839231846424  0.5016500270516033   T   T   T
  0.0833059365784479  0.5416861039678054  0.5016404962696654   T   T   T
  0.0833081818788486  0.6666852068589435  0.5016406194311500   T   T   T
  0.0833072582360543  0.7916844628612552  0.5016422448305136   T   T   T
  0.0833019891770306  0.9166831054498630  0.5016614054115465   T   T   T
  0.2082990755215022  0.0416794257304431  0.5017170944971525   T   T   T
  0.2082914860022953  0.1666732733336787  0.5017343928482632   T   T   T
  0.2082887300235186  0.2916760322435010  0.5016915937951438   T   T   T
  0.2082998724865206  0.4166959629514437  0.5015957452278812   T   T   T
  0.2083095914808695  0.5416950947436376  0.5016367120128677   T   T   T
  0.2083081914437770  0.6666898535459751  0.5016437792946107   T   T   T
  0.2083075452585774  0.7916868598777640  0.5016428390104721   T   T   T
  0.2083049503708807  0.9166847477875564  0.5016634378621916   T   T   T
  0.3333056536645671  0.0416831853780693  0.5017000214194667   T   T   T
  0.3333030809851252  0.1666811013529852  0.5017541810647543   T   T   T
  0.3333100210958193  0.2916850405267084  0.5017607088255218   T   T   T
  0.3333199241830087  0.4167056844645032  0.5016869184934478   T   T   T
  0.3333120361464239  0.5417005339400731  0.5016643709589843   T   T   T
  0.3333101603732445  0.6666942510264917  0.5016546712727248   T   T   T
  0.3333085302288481  0.7916890157792054  0.5016434542481463   T   T   T
  0.3333070072427446  0.9166863535489611  0.5016484288107677   T   T   T
  0.4583062055564397  0.0416840338173188  0.5016527324663755   T   T   T
  0.4583032571607859  0.1666814153030742  0.5016997508132022   T   T   T
  0.4583041513550370  0.2916832491268622  0.5017261608455144   T   T   T
  0.4583076091106975  0.4166902456696917  0.5017053724521858   T   T   T
  0.4583084141732172  0.5416949354876337  0.5016776163105447   T   T   T
  0.4583082478087022  0.6666921226892200  0.5016624739694251   T   T   T
  0.4583086288733824  0.7916892234442017  0.5016461314474299   T   T   T
  0.4583096047952182  0.9166865115753282  0.5016386936140975   T   T   T
  0.5833072450856562  0.0416841295246755  0.5016362789877888   T   T   T
  0.5833036301920274  0.1666828901314901  0.5016459542270937   T   T   T
  0.5833023629419927  0.2916824035015040  0.5016639235528046   T   T   T
  0.5833028210957778  0.4166835737942378  0.5016644280663769   T   T   T
  0.5833041548986557  0.5416861016837373  0.5016538005211544   T   T   T
  0.5833059473423887  0.6666865008874794  0.5016495810135098   T   T   T
  0.5833067212121819  0.7916855328996775  0.5016438079014662   T   T   T
  0.5833093252632366  0.9166849773491919  0.5016383233960937   T   T   T
  0.7083050446161394  0.0416821681633763  0.5016387165846012   T   T   T
  0.7083036616867915  0.1666822085731354  0.5016396601681237   T   T   T
  0.7083032857482365  0.2916818020773277  0.5016400659159927   T   T   T
  0.7083036627564709  0.4166814122191340  0.5016402874672110   T   T   T
  0.7083043492036012  0.5416815205699734  0.5016382205195171   T   T   T
  0.7083054378774065  0.6666820877047712  0.5016385581253573   T   T   T
  0.7083066651875498  0.7916822971274726  0.5016394171166851   T   T   T
  0.7083059593006524  0.9166823841831260  0.5016380480283971   T   T   T
  0.8333018800784160  0.0416814407137878  0.5016461185615597   T   T   T
  0.8332992484755763  0.1666817930043507  0.5016519905862680   T   T   T
  0.8333014500874256  0.2916823040834799  0.5016486722812701   T   T   T
  0.8333041976941757  0.4166824713964203  0.5016408842968332   T   T   T
  0.8333057902765688  0.5416821414848414  0.5016379383976712   T   T   T
  0.8333064142766986  0.6666818764843683  0.5016376943050460   T   T   T
  0.8333054244057507  0.7916813525676645  0.5016377952326465   T   T   T
  0.8333031151326225  0.9166807303779905  0.5016403370553917   T   T   T
  0.9582939917390831  0.0416798049485152  0.5016641323977851   T   T   T
  0.9582925474072894  0.1666815789018585  0.5016780003318075   T   T   T
  0.9582951401149913  0.2916816112742211  0.5016719044286901   T   T   T
  0.9583014595931516  0.4166834915624165  0.5016500507988724   T   T   T
  0.9583070421520219  0.5416837723047223  0.5016403835779357   T   T   T
  0.9583070223343029  0.6666832580118651  0.5016391740954163   T   T   T
  0.9583059387975936  0.7916823642332247  0.5016395836994718   T   T   T
  0.9583007289788625  0.9166807910167876  0.5016482485262586   T   T   T
  0.0416321598942844  0.0833512111881731  0.5016787104065230   T   T   T
  0.0416342012061648  0.2083540899412455  0.5016887586582968   T   T   T
  0.0416365450567824  0.3333515547944401  0.5016662698771981   T   T   T
  0.0416389091311302  0.4583507193769591  0.5016339456308287   T   T   T
  0.0416419083102824  0.5833501613078909  0.5016269909765825   T   T   T
  0.0416418075921285  0.7083509459117110  0.5016268108025201   T   T   T
  0.0416407894942381  0.8333513393065886  0.5016298331188622   T   T   T
  0.0416363866977534  0.9583511432064711  0.5016523678325271   T   T   T
  0.1666326557111262  0.0833510172991225  0.5017108129187733   T   T   T
  0.1666306037489420  0.2083500534176750  0.5017220191408285   T   T   T
  0.1666414759612351  0.3333573756243595  0.5016414027502094   T   T   T
  0.1666390108296127  0.4583532245897217  0.5016077121292142   T   T   T
  0.1666418213683016  0.5833532539340780  0.5016284157569544   T   T   T
  0.1666417716643878  0.7083524201445570  0.5016300399374529   T   T   T
  0.1666412204267331  0.8333527622327139  0.5016324192518695   T   T   T
  0.1666373750486443  0.9583522370884765  0.5016657430125591   T   T   T
  0.2916349239093705  0.0833543725615371  0.5017249697280945   T   T   T
  0.2916275319059309  0.2083512286781612  0.5017550730817106   T   T   T
  0.2916306109482960  0.3333556824910673  0.5017425017799937   T   T   T
  0.2916323705116923  0.4583490277465998  0.5016303614759252   T   T   T
  0.2916406857943912  0.5833538199488686  0.5016433099799826   T   T   T
  0.2916413631107631  0.7083535187857493  0.5016354114547639   T   T   T
  0.2916411028253805  0.8333532838299220  0.5016298625780351   T   T   T
  0.2916389875283016  0.9583530072654867  0.5016540606363478   T   T   T
  0.4166366405236772  0.0833510438820184  0.5016704866149695   T   T   T
  0.4166299347649414  0.2083493923686532  0.5017245999506486   T   T   T
  0.4166309738539269  0.3333499455368809  0.5017350259211568   T   T   T
  0.4166353373060758  0.4583537448784583  0.5016764415873425   T   T   T
  0.4166362814065465  0.5833530691459359  0.5016622473446901   T   T   T
  0.4166404315986085  0.7083540995863160  0.5016434698261065   T   T   T
  0.4166415203229477  0.8333528596325834  0.5016288399890172   T   T   T
  0.4166404079084387  0.9583516747466163  0.5016292124389494   T   T   T
  0.5416391438665187  0.0833499943409635  0.5016276860415090   T   T   T
  0.5416345196842727  0.2083490730724193  0.5016539781128344   T   T   T
  0.5416319754532637  0.3333484105335529  0.5016698317576029   T   T   T
  0.5416334795116953  0.4583492451325526  0.5016584788914713   T   T   T
  0.5416363004926339  0.5833510502324231  0.5016455219422724   T   T   T
  0.5416391302268053  0.7083513218975668  0.5016391549287178   T   T   T
  0.5416409779967353  0.8333513054531210  0.5016292944983078   T   T   T
  0.5416420512295090  0.9583509126841037  0.5016239282255128   T   T   T
  0.6666402395034083  0.0833492747227993  0.5016241674097373   T   T   T
  0.6666372994401328  0.2083485216870002  0.5016249876518728   T   T   T
  0.6666355874154632  0.3333473177249502  0.5016310992871666   T   T   T
  0.6666353304201493  0.4583468067667553  0.5016292203114858   T   T   T
  0.6666365551332234  0.5833472667787873  0.5016264648379689   T   T   T
  0.6666389872368441  0.7083483162163660  0.5016279370218300   T   T   T
  0.6666401162528572  0.8333488954742236  0.5016267202754321   T   T   T
  0.6666411428889560  0.9583493009438797  0.5016244354201973   T   T   T
  0.7916382560798638  0.0833491501330457  0.5016312256773503   T   T   T
  0.7916372773811418  0.2083496994258880  0.5016341593993019   T   T   T
  0.7916373522103939  0.3333490608231173  0.5016282495552247   T   T   T
  0.7916382527097809  0.4583480192756539  0.5016247452988054   T   T   T
  0.7916388092281395  0.5833474586593894  0.5016244416172739   T   T   T
  0.7916397091898375  0.7083476738918577  0.5016244306856521   T   T   T
  0.7916397188569562  0.8333477141393786  0.5016257237815083   T   T   T
  0.7916396352242927  0.9583486467622038  0.5016266646257890   T   T   T
  0.9166353771389169  0.0833509503553316  0.5016464889041075   T   T   T
  0.9166347663845258  0.2083508626450623  0.5016540532258489   T   T   T
  0.9166366523690002  0.3333504773660962  0.5016454007364430   T   T   T
  0.9166393756534532  0.4583498359055724  0.5016303012958616   T   T   T
  0.9166405086436598  0.5833492222313410  0.5016262523803192   T   T   T
  0.9166408547152116  0.7083489193626562  0.5016254411446255   T   T   T
  0.9166398003675909  0.8333487691669319  0.5016259380475034   T   T   T
  0.9166374514174294  0.9583491303309941  0.5016334886075171   T   T   T
  0.2828940344658264  0.2254299640552588  0.6643623713162654   T   T   T
  0.2701824965183306  0.2036273715690697  0.6226938669689233   T   T   T
  0.2370818388841229  0.3876667016072517  0.6114200013817950   T   T   T
  0.3504871592680558  0.2902433595737079  0.6690069533259262   T   T   T
  0.2838678318612011  0.1703736174773240  0.6862262625747206   T   T   T
  0.2264362689650810  0.2365631407863944  0.6773904702581959   T   T   T
  0.3266690425556433  0.1974740827582195  0.6066602994551076   T   T   T
  0.2018430241358899  0.1436605353990004  0.6148953641609580   T   T   T
  0.3031197029281358  0.4291725213360706  0.6096438185858446   T   T   T
  0.1710649553352610  0.3459049032006547  0.6130615849453420   T   T   T
 
  0.00000000E+00  0.00000000E+00  0.00000000E+00
  0.00000000E+00  0.00000000E+00  0.00000000E+00
  0.00000000E+00  0.00000000E+00  0.00000000E+00
  0.00000000E+00  0.00000000E+00  0.00000000E+00
  0.00000000E+00  0.00000000E+00  0.00000000E+00
  0.00000000E+00  0.00000000E+00  0.00000000E+00
  0.00000000E+00  0.00000000E+00  0.00000000E+00
  0.00000000E+00  0.00000000E+00  0.00000000E+00
  0.00000000E+00  0.00000000E+00  0.00000000E+00
  0.00000000E+00  0.00000000E+00  0.00000000E+00
  0.00000000E+00  0.00000000E+00  0.00000000E+00
  0.00000000E+00  0.00000000E+00  0.00000000E+00
  0.00000000E+00  0.00000000E+00  0.00000000E+00
  0.00000000E+00  0.00000000E+00  0.00000000E+00
  0.00000000E+00  0.00000000E+00  0.00000000E+00
  0.00000000E+00  0.00000000E+00  0.00000000E+00
  0.00000000E+00  0.00000000E+00  0.00000000E+00
  0.00000000E+00  0.00000000E+00  0.00000000E+00
  0.00000000E+00  0.00000000E+00  0.00000000E+00
  0.00000000E+00  0.00000000E+00  0.00000000E+00
  0.00000000E+00  0.00000000E+00  0.00000000E+00
  0.00000000E+00  0.00000000E+00  0.00000000E+00
  0.00000000E+00  0.00000000E+00  0.00000000E+00
  0.00000000E+00  0.00000000E+00  0.00000000E+00
  0.00000000E+00  0.00000000E+00  0.00000000E+00
  0.00000000E+00  0.00000000E+00  0.00000000E+00
  0.00000000E+00  0.00000000E+00  0.00000000E+00
  0.00000000E+00  0.00000000E+00  0.00000000E+00
  0.00000000E+00  0.00000000E+00  0.00000000E+00
  0.00000000E+00  0.00000000E+00  0.00000000E+00
  0.00000000E+00  0.00000000E+00  0.00000000E+00
  0.00000000E+00  0.00000000E+00  0.00000000E+00
  0.00000000E+00  0.00000000E+00  0.00000000E+00
  0.00000000E+00  0.00000000E+00  0.00000000E+00
  0.00000000E+00  0.00000000E+00  0.00000000E+00
  0.00000000E+00  0.00000000E+00  0.00000000E+00
  0.00000000E+00  0.00000000E+00  0.00000000E+00
  0.00000000E+00  0.00000000E+00  0.00000000E+00
  0.00000000E+00  0.00000000E+00  0.00000000E+00
  0.00000000E+00  0.00000000E+00  0.00000000E+00
  0.00000000E+00  0.00000000E+00  0.00000000E+00
  0.00000000E+00  0.00000000E+00  0.00000000E+00
  0.00000000E+00  0.00000000E+00  0.00000000E+00
  0.00000000E+00  0.00000000E+00  0.00000000E+00
  0.00000000E+00  0.00000000E+00  0.00000000E+00
  0.00000000E+00  0.00000000E+00  0.00000000E+00
  0.00000000E+00  0.00000000E+00  0.00000000E+00
  0.00000000E+00  0.00000000E+00  0.00000000E+00
  0.00000000E+00  0.00000000E+00  0.00000000E+00
  0.00000000E+00  0.00000000E+00  0.00000000E+00
  0.00000000E+00  0.00000000E+00  0.00000000E+00
  0.00000000E+00  0.00000000E+00  0.00000000E+00
  0.00000000E+00  0.00000000E+00  0.00000000E+00
  0.00000000E+00  0.00000000E+00  0.00000000E+00
  0.00000000E+00  0.00000000E+00  0.00000000E+00
  0.00000000E+00  0.00000000E+00  0.00000000E+00
  0.00000000E+00  0.00000000E+00  0.00000000E+00
  0.00000000E+00  0.00000000E+00  0.00000000E+00
  0.00000000E+00  0.00000000E+00  0.00000000E+00
  0.00000000E+00  0.00000000E+00  0.00000000E+00
  0.00000000E+00  0.00000000E+00  0.00000000E+00
  0.00000000E+00  0.00000000E+00  0.00000000E+00
  0.00000000E+00  0.00000000E+00  0.00000000E+00
  0.00000000E+00  0.00000000E+00  0.00000000E+00
  0.00000000E+00  0.00000000E+00  0.00000000E+00
  0.00000000E+00  0.00000000E+00  0.00000000E+00
  0.00000000E+00  0.00000000E+00  0.00000000E+00
  0.00000000E+00  0.00000000E+00  0.00000000E+00
  0.00000000E+00  0.00000000E+00  0.00000000E+00
  0.00000000E+00  0.00000000E+00  0.00000000E+00
  0.00000000E+00  0.00000000E+00  0.00000000E+00
  0.00000000E+00  0.00000000E+00  0.00000000E+00
  0.00000000E+00  0.00000000E+00  0.00000000E+00
  0.00000000E+00  0.00000000E+00  0.00000000E+00
  0.00000000E+00  0.00000000E+00  0.00000000E+00
  0.00000000E+00  0.00000000E+00  0.00000000E+00
  0.00000000E+00  0.00000000E+00  0.00000000E+00
  0.00000000E+00  0.00000000E+00  0.00000000E+00
  0.00000000E+00  0.00000000E+00  0.00000000E+00
  0.00000000E+00  0.00000000E+00  0.00000000E+00
  0.00000000E+00  0.00000000E+00  0.00000000E+00
  0.00000000E+00  0.00000000E+00  0.00000000E+00
  0.00000000E+00  0.00000000E+00  0.00000000E+00
  0.00000000E+00  0.00000000E+00  0.00000000E+00
  0.00000000E+00  0.00000000E+00  0.00000000E+00
  0.00000000E+00  0.00000000E+00  0.00000000E+00
  0.00000000E+00  0.00000000E+00  0.00000000E+00
  0.00000000E+00  0.00000000E+00  0.00000000E+00
  0.00000000E+00  0.00000000E+00  0.00000000E+00
  0.00000000E+00  0.00000000E+00  0.00000000E+00
  0.00000000E+00  0.00000000E+00  0.00000000E+00
  0.00000000E+00  0.00000000E+00  0.00000000E+00
  0.00000000E+00  0.00000000E+00  0.00000000E+00
  0.00000000E+00  0.00000000E+00  0.00000000E+00
  0.00000000E+00  0.00000000E+00  0.00000000E+00
  0.00000000E+00  0.00000000E+00  0.00000000E+00
  0.00000000E+00  0.00000000E+00  0.00000000E+00
  0.00000000E+00  0.00000000E+00  0.00000000E+00
  0.00000000E+00  0.00000000E+00  0.00000000E+00
  0.00000000E+00  0.00000000E+00  0.00000000E+00
  0.00000000E+00  0.00000000E+00  0.00000000E+00
  0.00000000E+00  0.00000000E+00  0.00000000E+00
  0.00000000E+00  0.00000000E+00  0.00000000E+00
  0.00000000E+00  0.00000000E+00  0.00000000E+00
  0.00000000E+00  0.00000000E+00  0.00000000E+00
  0.00000000E+00  0.00000000E+00  0.00000000E+00
  0.00000000E+00  0.00000000E+00  0.00000000E+00
  0.00000000E+00  0.00000000E+00  0.00000000E+00
  0.00000000E+00  0.00000000E+00  0.00000000E+00
  0.00000000E+00  0.00000000E+00  0.00000000E+00
  0.00000000E+00  0.00000000E+00  0.00000000E+00
  0.00000000E+00  0.00000000E+00  0.00000000E+00
  0.00000000E+00  0.00000000E+00  0.00000000E+00
  0.00000000E+00  0.00000000E+00  0.00000000E+00
  0.00000000E+00  0.00000000E+00  0.00000000E+00
  0.00000000E+00  0.00000000E+00  0.00000000E+00
  0.00000000E+00  0.00000000E+00  0.00000000E+00
  0.00000000E+00  0.00000000E+00  0.00000000E+00
  0.00000000E+00  0.00000000E+00  0.00000000E+00
  0.00000000E+00  0.00000000E+00  0.00000000E+00
  0.00000000E+00  0.00000000E+00  0.00000000E+00
  0.00000000E+00  0.00000000E+00  0.00000000E+00
  0.00000000E+00  0.00000000E+00  0.00000000E+00
  0.00000000E+00  0.00000000E+00  0.00000000E+00
  0.00000000E+00  0.00000000E+00  0.00000000E+00
  0.00000000E+00  0.00000000E+00  0.00000000E+00
  0.00000000E+00  0.00000000E+00  0.00000000E+00
  0.00000000E+00  0.00000000E+00  0.00000000E+00
  0.00000000E+00  0.00000000E+00  0.00000000E+00
  0.00000000E+00  0.00000000E+00  0.00000000E+00
  0.00000000E+00  0.00000000E+00  0.00000000E+00
  0.00000000E+00  0.00000000E+00  0.00000000E+00
  0.00000000E+00  0.00000000E+00  0.00000000E+00
  0.00000000E+00  0.00000000E+00  0.00000000E+00
  0.00000000E+00  0.00000000E+00  0.00000000E+00
  0.00000000E+00  0.00000000E+00  0.00000000E+00
  0.00000000E+00  0.00000000E+00  0.00000000E+00
  0.00000000E+00  0.00000000E+00  0.00000000E+00
