B C F N O                               
   1.00000000000000     
    10.0487000000000002  -17.4050000000000011    0.0000000000000000
    10.0487000000000002   17.4050000000000011    0.0000000000000000
     0.0000000000000000    0.0000000000000000   35.0000000000000000
   B    C    F    N    O 
    64     3     5    64     2
Selective dynamics
Direct
  0.0830929889890371  0.0413925265292860  0.5013793149778891   T   T   T
  0.0830914245020935  0.1663967393982304  0.5013785361203986   T   T   T
  0.0830960048068903  0.2913998671846656  0.5013749209989200   T   T   T
  0.0830978505607831  0.4163980338026718  0.5013892101329134   T   T   T
  0.2080964630459690  0.0413907583877204  0.5013810759177701   T   T   T
  0.2080969924580387  0.1663911005615972  0.5013572530083508   T   T   T
  0.2080952394224482  0.2914119504684862  0.5013468869256315   T   T   T
  0.2081037370519496  0.4164140590956791  0.5013735299408566   T   T   T
  0.3330979344840230  0.0413937962249094  0.5013975842501566   T   T   T
  0.3331032838723331  0.1663935781015411  0.5013961444582833   T   T   T
  0.3331150263339993  0.2914081347944588  0.5013751127917985   T   T   T
  0.3331116704338939  0.4164218123704941  0.5013894326926405   T   T   T
  0.4580971469226469  0.0413918349331439  0.5014021958224575   T   T   T
  0.4580987212704457  0.1663914196761098  0.5013994419245265   T   T   T
  0.4580999783517399  0.2913960211771993  0.5013915262927000   T   T   T
  0.4581037658769205  0.4164074947108958  0.5013875814611524   T   T   T
  0.0830984683231861  0.5413967800312065  0.5014003267134512   T   T   T
  0.0830956118914301  0.6663942828827345  0.5013985789149515   T   T   T
  0.0830940949239078  0.7913927525273721  0.5013984959481022   T   T   T
  0.0830941612600071  0.9163923633961346  0.5013952142516445   T   T   T
  0.2080998759874504  0.5414048636986095  0.5013934757767728   T   T   T
  0.2080977761696303  0.6664013570471639  0.5014075876994397   T   T   T
  0.2080964487457848  0.7913970636344629  0.5014058550817637   T   T   T
  0.2080948914609877  0.9163928138767403  0.5014015634405382   T   T   T
  0.3331056386421878  0.5414125957156699  0.5013854506601518   T   T   T
  0.3330989340897048  0.6664026727818069  0.5014024528173522   T   T   T
  0.3330970625015084  0.7913988655405717  0.5014032329826037   T   T   T
  0.3330963955716726  0.9163972349792147  0.5014045510061322   T   T   T
  0.4581029324431327  0.5414061346999617  0.5013848270246015   T   T   T
  0.4580999801899779  0.6664018022405713  0.5013966326441803   T   T   T
  0.4580969040461582  0.7913966081908654  0.5013996553496654   T   T   T
  0.4580965587746846  0.9163943566667072  0.5013996359555506   T   T   T
  0.5830979648104844  0.0413940320887178  0.5013980693250630   T   T   T
  0.5830967245318632  0.1663936456887001  0.5014025651110146   T   T   T
  0.5830950710783256  0.2913959209479913  0.5014027424145269   T   T   T
  0.5830961764411384  0.4163969451082252  0.5014006225898839   T   T   T
  0.7080983979847559  0.0413955673298148  0.5013999285058333   T   T   T
  0.7080972863062840  0.1663967787544323  0.5014054823788356   T   T   T
  0.7080956808113541  0.2913980185255056  0.5014087017567164   T   T   T
  0.7080957868296451  0.4163970091480209  0.5014043170917830   T   T   T
  0.8330973027695592  0.0413970626250730  0.5014000161049097   T   T   T
  0.8330970163991154  0.1663974422924070  0.5014029790432062   T   T   T
  0.8330963908426625  0.2913972913061116  0.5014067728588643   T   T   T
  0.8330963948268320  0.4163963752245863  0.5014027061535842   T   T   T
  0.9580951682977883  0.0413953865195253  0.5013937582889199   T   T   T
  0.9580952246654277  0.1663965721013412  0.5013884120464596   T   T   T
  0.9580961801272636  0.2913960571790497  0.5013976322491942   T   T   T
  0.9580972673881050  0.4163956279717027  0.5013998774969153   T   T   T
  0.5830991411136779  0.5413992873914992  0.5013980614861495   T   T   T
  0.5830989827119453  0.6663996621295993  0.5014009382444087   T   T   T
  0.5830976867737832  0.7913972402258196  0.5014007791682431   T   T   T
  0.5830967937617828  0.9163941995552491  0.5013966327627486   T   T   T
  0.7080956263251181  0.5413959957180268  0.5014015752816761   T   T   T
  0.7080976641290775  0.6663970661188188  0.5014039215604953   T   T   T
  0.7080968868779252  0.7913966819217606  0.5014064948839589   T   T   T
  0.7080970334841155  0.9163961714306907  0.5014019030182624   T   T   T
  0.8330963490342711  0.5413944277235814  0.5013961316169500   T   T   T
  0.8330946754174420  0.6663935428561132  0.5013971663025529   T   T   T
  0.8330953791349671  0.7913974024638222  0.5014022589180698   T   T   T
  0.8330961019147196  0.9163980405771568  0.5014036812714053   T   T   T
  0.9580969952481126  0.5413934114786585  0.5013962804730383   T   T   T
  0.9580955464206724  0.6663920508392991  0.5013925563048716   T   T   T
  0.9580930448699618  0.7913915398754696  0.5013982147811546   T   T   T
  0.9580947312980612  0.9163937352056308  0.5013992681953212   T   T   T
  0.2802242964009451  0.2343366402771281  0.6753056510271591   T   T   T
  0.2664168611594917  0.2325535610235434  0.6321685545144362   T   T   T
  0.2566477956303999  0.3207474768453338  0.6185687843655927   T   T   T
  0.3465954528186757  0.2965061116519223  0.6848299048948689   T   T   T
  0.2834359718119188  0.1714272052668733  0.6855270357915728   T   T   T
  0.2227653122232098  0.2345863756144269  0.6944590278820826   T   T   T
  0.3252587771324755  0.2376850759578630  0.6125064579344439   T   T   T
  0.2015052365947909  0.1701328582515274  0.6222874741997231   T   T   T
  0.0414352891435499  0.0830714770621697  0.5013748049933042   T   T   T
  0.0414356124657473  0.2080720785562065  0.5013667146943064   T   T   T
  0.0414331369860790  0.3330695333704554  0.5013780819010378   T   T   T
  0.0414327947874682  0.4580684972470124  0.5013903862658040   T   T   T
  0.1664340226977075  0.0830702791641684  0.5013566300716477   T   T   T
  0.1664426212807086  0.2080793324877988  0.5013642227795003   T   T   T
  0.1664391763890123  0.3330802142391462  0.5013457813777578   T   T   T
  0.1664346657279836  0.4580754229552255  0.5013739843429192   T   T   T
  0.2914317699820472  0.0830691548453899  0.5013850212835322   T   T   T
  0.2914350210339052  0.2080755021323739  0.5013804437703371   T   T   T
  0.2914346175014941  0.3330739313495030  0.5013954916149004   T   T   T
  0.2914382708887615  0.4580786761618043  0.5013721788162542   T   T   T
  0.4164308537767027  0.0830649081852712  0.5013929969008046   T   T   T
  0.4164311724440353  0.2080667104439158  0.5013822766161482   T   T   T
  0.4164339477629326  0.3330723457835845  0.5013760909207008   T   T   T
  0.4164347084750091  0.4580744929121323  0.5013658126064797   T   T   T
  0.0414317395405988  0.5830666864338099  0.5013914935591046   T   T   T
  0.0414299117068282  0.7080654657757535  0.5013904720069888   T   T   T
  0.0414288918270742  0.8330654897810348  0.5013931358962296   T   T   T
  0.0414315847688016  0.9580675365977385  0.5013877087792977   T   T   T
  0.1664333544200716  0.5830730577172147  0.5013931189524641   T   T   T
  0.1664303959717088  0.7080694842097088  0.5013988304957522   T   T   T
  0.1664294546678846  0.8330667254361614  0.5013959122295049   T   T   T
  0.1664303486280687  0.9580668302796340  0.5013869931759629   T   T   T
  0.2914343093056004  0.5830751333734128  0.5013856222174269   T   T   T
  0.2914318438391419  0.7080721217669890  0.5014003808554364   T   T   T
  0.2914310696441902  0.8330700826674402  0.5014021855414796   T   T   T
  0.2914297191054587  0.9580681465243686  0.5013941535224333   T   T   T
  0.4164356437222594  0.5830745098935708  0.5013802609458935   T   T   T
  0.4164323321103964  0.7080706522185665  0.5013932292623053   T   T   T
  0.4164309272282551  0.8330674426893339  0.5013974391630995   T   T   T
  0.4164303943598355  0.9580654993870894  0.5013920822567215   T   T   T
  0.5414312880844321  0.0830650198382656  0.5013918607095036   T   T   T
  0.5414301443026233  0.2080656967451588  0.5013968438665088   T   T   T
  0.5414285825378116  0.3330670753985743  0.5013912816088535   T   T   T
  0.5414324063221230  0.4580702647210160  0.5013859539139389   T   T   T
  0.6664327597820261  0.0830675737525013  0.5013927241900831   T   T   T
  0.6664309345639410  0.2080681372802857  0.5014001556470120   T   T   T
  0.6664289688340688  0.3330685317775988  0.5013999696012092   T   T   T
  0.6664294653224445  0.4580676217783477  0.5013942088905665   T   T   T
  0.7914328642778301  0.0830689564993605  0.5013932818496514   T   T   T
  0.7914316360934706  0.2080686838045480  0.5013995984444293   T   T   T
  0.7914302815384886  0.3330682407868721  0.5014012554125671   T   T   T
  0.7914304569934458  0.4580673027319051  0.5013941001120799   T   T   T
  0.9164330242329513  0.0830690057740497  0.5013884798412960   T   T   T
  0.9164319127596556  0.2080685942824019  0.5013908905576159   T   T   T
  0.9164311763804278  0.3330674944314040  0.5013967641888684   T   T   T
  0.9164312174303575  0.4580661786589033  0.5013925838636339   T   T   T
  0.5414343951091709  0.5830716397828724  0.5013864206333523   T   T   T
  0.5414329868919765  0.7080706801995618  0.5013909436906161   T   T   T
  0.5414310522455281  0.8330674913107430  0.5013895770496930   T   T   T
  0.5414311145270219  0.9580657531851386  0.5013896310987889   T   T   T
  0.6664326889778636  0.5830689595755700  0.5013970035120536   T   T   T
  0.6664328359521363  0.7080689432312184  0.5013978928924843   T   T   T
  0.6664319159789329  0.8330679836042663  0.5013948784208395   T   T   T
  0.6664316303149533  0.9580672643250310  0.5013900613852016   T   T   T
  0.7914299807395864  0.5830656382940731  0.5013907810248242   T   T   T
  0.7914320967196105  0.7080692230705097  0.5013947175684592   T   T   T
  0.7914312812169584  0.8330704247080831  0.5013985916425909   T   T   T
  0.7914319645424115  0.9580698198350746  0.5013939209109068   T   T   T
  0.9164310395267421  0.5830649920530959  0.5013828280753785   T   T   T
  0.9164296775610197  0.7080639696848579  0.5013870318037803   T   T   T
  0.9164301535297810  0.8330667092984001  0.5013954774615712   T   T   T
  0.9164319419784803  0.9580681673582774  0.5013938158400109   T   T   T
  0.3217119232262178  0.3717722070848239  0.6148017017053817   T   T   T
  0.1888277419689857  0.2968233394894213  0.6179186091696849   T   T   T
 
  0.00000000E+00  0.00000000E+00  0.00000000E+00
  0.00000000E+00  0.00000000E+00  0.00000000E+00
  0.00000000E+00  0.00000000E+00  0.00000000E+00
  0.00000000E+00  0.00000000E+00  0.00000000E+00
  0.00000000E+00  0.00000000E+00  0.00000000E+00
  0.00000000E+00  0.00000000E+00  0.00000000E+00
  0.00000000E+00  0.00000000E+00  0.00000000E+00
  0.00000000E+00  0.00000000E+00  0.00000000E+00
  0.00000000E+00  0.00000000E+00  0.00000000E+00
  0.00000000E+00  0.00000000E+00  0.00000000E+00
  0.00000000E+00  0.00000000E+00  0.00000000E+00
  0.00000000E+00  0.00000000E+00  0.00000000E+00
  0.00000000E+00  0.00000000E+00  0.00000000E+00
  0.00000000E+00  0.00000000E+00  0.00000000E+00
  0.00000000E+00  0.00000000E+00  0.00000000E+00
  0.00000000E+00  0.00000000E+00  0.00000000E+00
  0.00000000E+00  0.00000000E+00  0.00000000E+00
  0.00000000E+00  0.00000000E+00  0.00000000E+00
  0.00000000E+00  0.00000000E+00  0.00000000E+00
  0.00000000E+00  0.00000000E+00  0.00000000E+00
  0.00000000E+00  0.00000000E+00  0.00000000E+00
  0.00000000E+00  0.00000000E+00  0.00000000E+00
  0.00000000E+00  0.00000000E+00  0.00000000E+00
  0.00000000E+00  0.00000000E+00  0.00000000E+00
  0.00000000E+00  0.00000000E+00  0.00000000E+00
  0.00000000E+00  0.00000000E+00  0.00000000E+00
  0.00000000E+00  0.00000000E+00  0.00000000E+00
  0.00000000E+00  0.00000000E+00  0.00000000E+00
  0.00000000E+00  0.00000000E+00  0.00000000E+00
  0.00000000E+00  0.00000000E+00  0.00000000E+00
  0.00000000E+00  0.00000000E+00  0.00000000E+00
  0.00000000E+00  0.00000000E+00  0.00000000E+00
  0.00000000E+00  0.00000000E+00  0.00000000E+00
  0.00000000E+00  0.00000000E+00  0.00000000E+00
  0.00000000E+00  0.00000000E+00  0.00000000E+00
  0.00000000E+00  0.00000000E+00  0.00000000E+00
  0.00000000E+00  0.00000000E+00  0.00000000E+00
  0.00000000E+00  0.00000000E+00  0.00000000E+00
  0.00000000E+00  0.00000000E+00  0.00000000E+00
  0.00000000E+00  0.00000000E+00  0.00000000E+00
  0.00000000E+00  0.00000000E+00  0.00000000E+00
  0.00000000E+00  0.00000000E+00  0.00000000E+00
  0.00000000E+00  0.00000000E+00  0.00000000E+00
  0.00000000E+00  0.00000000E+00  0.00000000E+00
  0.00000000E+00  0.00000000E+00  0.00000000E+00
  0.00000000E+00  0.00000000E+00  0.00000000E+00
  0.00000000E+00  0.00000000E+00  0.00000000E+00
  0.00000000E+00  0.00000000E+00  0.00000000E+00
  0.00000000E+00  0.00000000E+00  0.00000000E+00
  0.00000000E+00  0.00000000E+00  0.00000000E+00
  0.00000000E+00  0.00000000E+00  0.00000000E+00
  0.00000000E+00  0.00000000E+00  0.00000000E+00
  0.00000000E+00  0.00000000E+00  0.00000000E+00
  0.00000000E+00  0.00000000E+00  0.00000000E+00
  0.00000000E+00  0.00000000E+00  0.00000000E+00
  0.00000000E+00  0.00000000E+00  0.00000000E+00
  0.00000000E+00  0.00000000E+00  0.00000000E+00
  0.00000000E+00  0.00000000E+00  0.00000000E+00
  0.00000000E+00  0.00000000E+00  0.00000000E+00
  0.00000000E+00  0.00000000E+00  0.00000000E+00
  0.00000000E+00  0.00000000E+00  0.00000000E+00
  0.00000000E+00  0.00000000E+00  0.00000000E+00
  0.00000000E+00  0.00000000E+00  0.00000000E+00
  0.00000000E+00  0.00000000E+00  0.00000000E+00
  0.00000000E+00  0.00000000E+00  0.00000000E+00
  0.00000000E+00  0.00000000E+00  0.00000000E+00
  0.00000000E+00  0.00000000E+00  0.00000000E+00
  0.00000000E+00  0.00000000E+00  0.00000000E+00
  0.00000000E+00  0.00000000E+00  0.00000000E+00
  0.00000000E+00  0.00000000E+00  0.00000000E+00
  0.00000000E+00  0.00000000E+00  0.00000000E+00
  0.00000000E+00  0.00000000E+00  0.00000000E+00
  0.00000000E+00  0.00000000E+00  0.00000000E+00
  0.00000000E+00  0.00000000E+00  0.00000000E+00
  0.00000000E+00  0.00000000E+00  0.00000000E+00
  0.00000000E+00  0.00000000E+00  0.00000000E+00
  0.00000000E+00  0.00000000E+00  0.00000000E+00
  0.00000000E+00  0.00000000E+00  0.00000000E+00
  0.00000000E+00  0.00000000E+00  0.00000000E+00
  0.00000000E+00  0.00000000E+00  0.00000000E+00
  0.00000000E+00  0.00000000E+00  0.00000000E+00
  0.00000000E+00  0.00000000E+00  0.00000000E+00
  0.00000000E+00  0.00000000E+00  0.00000000E+00
  0.00000000E+00  0.00000000E+00  0.00000000E+00
  0.00000000E+00  0.00000000E+00  0.00000000E+00
  0.00000000E+00  0.00000000E+00  0.00000000E+00
  0.00000000E+00  0.00000000E+00  0.00000000E+00
  0.00000000E+00  0.00000000E+00  0.00000000E+00
  0.00000000E+00  0.00000000E+00  0.00000000E+00
  0.00000000E+00  0.00000000E+00  0.00000000E+00
  0.00000000E+00  0.00000000E+00  0.00000000E+00
  0.00000000E+00  0.00000000E+00  0.00000000E+00
  0.00000000E+00  0.00000000E+00  0.00000000E+00
  0.00000000E+00  0.00000000E+00  0.00000000E+00
  0.00000000E+00  0.00000000E+00  0.00000000E+00
  0.00000000E+00  0.00000000E+00  0.00000000E+00
  0.00000000E+00  0.00000000E+00  0.00000000E+00
  0.00000000E+00  0.00000000E+00  0.00000000E+00
  0.00000000E+00  0.00000000E+00  0.00000000E+00
  0.00000000E+00  0.00000000E+00  0.00000000E+00
  0.00000000E+00  0.00000000E+00  0.00000000E+00
  0.00000000E+00  0.00000000E+00  0.00000000E+00
  0.00000000E+00  0.00000000E+00  0.00000000E+00
  0.00000000E+00  0.00000000E+00  0.00000000E+00
  0.00000000E+00  0.00000000E+00  0.00000000E+00
  0.00000000E+00  0.00000000E+00  0.00000000E+00
  0.00000000E+00  0.00000000E+00  0.00000000E+00
  0.00000000E+00  0.00000000E+00  0.00000000E+00
  0.00000000E+00  0.00000000E+00  0.00000000E+00
  0.00000000E+00  0.00000000E+00  0.00000000E+00
  0.00000000E+00  0.00000000E+00  0.00000000E+00
  0.00000000E+00  0.00000000E+00  0.00000000E+00
  0.00000000E+00  0.00000000E+00  0.00000000E+00
  0.00000000E+00  0.00000000E+00  0.00000000E+00
  0.00000000E+00  0.00000000E+00  0.00000000E+00
  0.00000000E+00  0.00000000E+00  0.00000000E+00
  0.00000000E+00  0.00000000E+00  0.00000000E+00
  0.00000000E+00  0.00000000E+00  0.00000000E+00
  0.00000000E+00  0.00000000E+00  0.00000000E+00
  0.00000000E+00  0.00000000E+00  0.00000000E+00
  0.00000000E+00  0.00000000E+00  0.00000000E+00
  0.00000000E+00  0.00000000E+00  0.00000000E+00
  0.00000000E+00  0.00000000E+00  0.00000000E+00
  0.00000000E+00  0.00000000E+00  0.00000000E+00
  0.00000000E+00  0.00000000E+00  0.00000000E+00
  0.00000000E+00  0.00000000E+00  0.00000000E+00
  0.00000000E+00  0.00000000E+00  0.00000000E+00
  0.00000000E+00  0.00000000E+00  0.00000000E+00
  0.00000000E+00  0.00000000E+00  0.00000000E+00
  0.00000000E+00  0.00000000E+00  0.00000000E+00
  0.00000000E+00  0.00000000E+00  0.00000000E+00
  0.00000000E+00  0.00000000E+00  0.00000000E+00
  0.00000000E+00  0.00000000E+00  0.00000000E+00
  0.00000000E+00  0.00000000E+00  0.00000000E+00
  0.00000000E+00  0.00000000E+00  0.00000000E+00
  0.00000000E+00  0.00000000E+00  0.00000000E+00
  0.00000000E+00  0.00000000E+00  0.00000000E+00
  0.00000000E+00  0.00000000E+00  0.00000000E+00
