B N                                     
   1.00000000000000     
     7.5365500567000003  -13.0537460594369996    0.0000000000000000
     7.5365500567000003   13.0537460594369996    0.0000000000000000
     0.0000000000000000    0.0000000000000000   35.1146643855649998
   B    N 
    35    37
Selective dynamics
Direct
  0.1112446851434731  0.0554531361119366  0.5000000000000000   T   T   T
  0.1112446851434731  0.2224585888205551  0.5000000000000000   T   T   T
  0.1114286360660723  0.3895236463141733  0.5000000000000000   T   T   T
  0.1093999392464547  0.5565902064420057  0.5000000000000000   T   T   T
  0.1093999392464547  0.7194767725934534  0.5000000000000000   T   T   T
  0.1114286360660723  0.8885720295409247  0.5000000000000000   T   T   T
  0.2780231627010964  0.0552839219136681  0.5000000000000000   T   T   T
  0.2778368955076648  0.2222519676478337  0.5000000000000000   T   T   T
  0.2780231627010964  0.3894062805764186  0.5000000000000000   T   T   T
  0.2805238930135436  0.5565902064420057  0.5000000000000000   T   T   T
  0.2805238930135436  0.8906007263605424  0.5000000000000000   T   T   T
  0.4453098337067696  0.0572860415945375  0.5000000000000000   T   T   T
  0.4445592146273938  0.2225425996045245  0.5000000000000000   T   T   T
  0.4445592146273938  0.3886836548108647  0.5000000000000000   T   T   T
  0.4453098337067696  0.5546908319012364  0.5000000000000000   T   T   T
  0.4434104591660004  0.7194767725934534  0.5000000000000000   T   T   T
  0.4434104591660004  0.8906007263605424  0.5000000000000000   T   T   T
  0.6105943850305785  0.0552839219136681  0.5000000000000000   T   T   T
  0.6113170107961323  0.2225425996045245  0.5000000000000000   T   T   T
  0.6111114304749989  0.3888892351319981  0.5000000000000000   T   T   T
  0.6113170107961323  0.5554414509806123  0.5000000000000000   T   T   T
  0.6105943850305785  0.7219775029059006  0.5000000000000000   T   T   T
  0.6104770192928236  0.8885720295409247  0.5000000000000000   T   T   T
  0.7775420767864490  0.0554531361119366  0.5000000000000000   T   T   T
  0.7777486979591633  0.2222519676478337  0.5000000000000000   T   T   T
  0.7774580660024725  0.3886836548108647  0.5000000000000000   T   T   T
  0.7774580660024725  0.5554414509806123  0.5000000000000000   T   T   T
  0.7777486979591633  0.7221637700993323  0.5000000000000000   T   T   T
  0.7775420767864490  0.8887559804635240  0.5000000000000000   T   T   T
  0.9444447638090026  0.0555559017990035  0.5000000000000000   T   T   T
  0.9445475294960695  0.2224585888205551  0.5000000000000000   T   T   T
  0.9447167436943380  0.3894062805764186  0.5000000000000000   T   T   T
  0.9427146240134685  0.5546908319012364  0.5000000000000000   T   T   T
  0.9447167436943380  0.7219775029059006  0.5000000000000000   T   T   T
  0.9445475294960695  0.8887559804635240  0.5000000000000000   T   T   T
  0.2777780971419972  0.7222225684649999  0.5000000000000000   T   T   T
  0.0557335972657193  0.1112002782083639  0.5000000000000000   T   T   T
  0.0560781209807504  0.2788225355055122  0.5000000000000000   T   T   T
  0.0575808959222807  0.4470151054459184  0.5000000000000000   T   T   T
  0.0552404717258162  0.6109537154383982  0.5000000000000000   T   T   T
  0.0575808959222807  0.7772327496283514  0.5000000000000000   T   T   T
  0.0560781209807504  0.9439225446272557  0.5000000000000000   T   T   T
  0.2223776803790683  0.1106294274687334  0.5000000000000000   T   T   T
  0.2223776803790683  0.2784152120623241  0.5000000000000000   T   T   T
  0.2227679159786456  0.4470151054459184  0.5000000000000000   T   T   T
  0.2260113129698720  0.6186889194847290  0.5000000000000000   T   T   T
  0.2260113129698720  0.7739893526371250  0.5000000000000000   T   T   T
  0.2227679159786456  0.9424197696857254  0.5000000000000000   T   T   T
  0.3888516958192837  0.1109673189326209  0.5000000000000000   T   T   T
  0.3888446004382876  0.2777557797951454  0.5000000000000000   T   T   T
  0.3888516958192837  0.4445513360386592  0.5000000000000000   T   T   T
  0.3890469501685989  0.6109537154383982  0.5000000000000000   T   T   T
  0.3813117461222752  0.7739893526371250  0.5000000000000000   T   T   T
  0.3890469501685989  0.9447601938821898  0.5000000000000000   T   T   T
  0.5554493295693470  0.1109673189326209  0.5000000000000000   T   T   T
  0.5555248018008133  0.2777158971456167  0.5000000000000000   T   T   T
  0.5555248018008133  0.4444758638071928  0.5000000000000000   T   T   T
  0.5554493295693470  0.6111489697877133  0.5000000000000000   T   T   T
  0.5529855601620876  0.7772327496283514  0.5000000000000000   T   T   T
  0.5529855601620876  0.9424197696857254  0.5000000000000000   T   T   T
  0.7215854535446730  0.1106294274687334  0.5000000000000000   T   T   T
  0.7222448858118515  0.2777557797951454  0.5000000000000000   T   T   T
  0.7222847684613805  0.4444758638071928  0.5000000000000000   T   T   T
  0.7222448858118515  0.6111560651687096  0.5000000000000000   T   T   T
  0.7215854535446730  0.7776229852279216  0.5000000000000000   T   T   T
  0.7211781301014848  0.9439225446272557  0.5000000000000000   T   T   T
  0.8888003873986331  0.1112002782083639  0.5000000000000000   T   T   T
  0.8893712381382637  0.2784152120623241  0.5000000000000000   T   T   T
  0.8890333466743763  0.4445513360386592  0.5000000000000000   T   T   T
  0.8890333466743763  0.6111489697877133  0.5000000000000000   T   T   T
  0.8893712381382637  0.7776229852279216  0.5000000000000000   T   T   T
  0.8888003873986331  0.9442670683422869  0.5000000000000000   T   T   T
 
  0.00000000E+00  0.00000000E+00  0.00000000E+00
  0.00000000E+00  0.00000000E+00  0.00000000E+00
  0.00000000E+00  0.00000000E+00  0.00000000E+00
  0.00000000E+00  0.00000000E+00  0.00000000E+00
  0.00000000E+00  0.00000000E+00  0.00000000E+00
  0.00000000E+00  0.00000000E+00  0.00000000E+00
  0.00000000E+00  0.00000000E+00  0.00000000E+00
  0.00000000E+00  0.00000000E+00  0.00000000E+00
  0.00000000E+00  0.00000000E+00  0.00000000E+00
  0.00000000E+00  0.00000000E+00  0.00000000E+00
  0.00000000E+00  0.00000000E+00  0.00000000E+00
  0.00000000E+00  0.00000000E+00  0.00000000E+00
  0.00000000E+00  0.00000000E+00  0.00000000E+00
  0.00000000E+00  0.00000000E+00  0.00000000E+00
  0.00000000E+00  0.00000000E+00  0.00000000E+00
  0.00000000E+00  0.00000000E+00  0.00000000E+00
  0.00000000E+00  0.00000000E+00  0.00000000E+00
  0.00000000E+00  0.00000000E+00  0.00000000E+00
  0.00000000E+00  0.00000000E+00  0.00000000E+00
  0.00000000E+00  0.00000000E+00  0.00000000E+00
  0.00000000E+00  0.00000000E+00  0.00000000E+00
  0.00000000E+00  0.00000000E+00  0.00000000E+00
  0.00000000E+00  0.00000000E+00  0.00000000E+00
  0.00000000E+00  0.00000000E+00  0.00000000E+00
  0.00000000E+00  0.00000000E+00  0.00000000E+00
  0.00000000E+00  0.00000000E+00  0.00000000E+00
  0.00000000E+00  0.00000000E+00  0.00000000E+00
  0.00000000E+00  0.00000000E+00  0.00000000E+00
  0.00000000E+00  0.00000000E+00  0.00000000E+00
  0.00000000E+00  0.00000000E+00  0.00000000E+00
  0.00000000E+00  0.00000000E+00  0.00000000E+00
  0.00000000E+00  0.00000000E+00  0.00000000E+00
  0.00000000E+00  0.00000000E+00  0.00000000E+00
  0.00000000E+00  0.00000000E+00  0.00000000E+00
  0.00000000E+00  0.00000000E+00  0.00000000E+00
  0.00000000E+00  0.00000000E+00  0.00000000E+00
  0.00000000E+00  0.00000000E+00  0.00000000E+00
  0.00000000E+00  0.00000000E+00  0.00000000E+00
  0.00000000E+00  0.00000000E+00  0.00000000E+00
  0.00000000E+00  0.00000000E+00  0.00000000E+00
  0.00000000E+00  0.00000000E+00  0.00000000E+00
  0.00000000E+00  0.00000000E+00  0.00000000E+00
  0.00000000E+00  0.00000000E+00  0.00000000E+00
  0.00000000E+00  0.00000000E+00  0.00000000E+00
  0.00000000E+00  0.00000000E+00  0.00000000E+00
  0.00000000E+00  0.00000000E+00  0.00000000E+00
  0.00000000E+00  0.00000000E+00  0.00000000E+00
  0.00000000E+00  0.00000000E+00  0.00000000E+00
  0.00000000E+00  0.00000000E+00  0.00000000E+00
  0.00000000E+00  0.00000000E+00  0.00000000E+00
  0.00000000E+00  0.00000000E+00  0.00000000E+00
  0.00000000E+00  0.00000000E+00  0.00000000E+00
  0.00000000E+00  0.00000000E+00  0.00000000E+00
  0.00000000E+00  0.00000000E+00  0.00000000E+00
  0.00000000E+00  0.00000000E+00  0.00000000E+00
  0.00000000E+00  0.00000000E+00  0.00000000E+00
  0.00000000E+00  0.00000000E+00  0.00000000E+00
  0.00000000E+00  0.00000000E+00  0.00000000E+00
  0.00000000E+00  0.00000000E+00  0.00000000E+00
  0.00000000E+00  0.00000000E+00  0.00000000E+00
  0.00000000E+00  0.00000000E+00  0.00000000E+00
  0.00000000E+00  0.00000000E+00  0.00000000E+00
  0.00000000E+00  0.00000000E+00  0.00000000E+00
  0.00000000E+00  0.00000000E+00  0.00000000E+00
  0.00000000E+00  0.00000000E+00  0.00000000E+00
  0.00000000E+00  0.00000000E+00  0.00000000E+00
  0.00000000E+00  0.00000000E+00  0.00000000E+00
  0.00000000E+00  0.00000000E+00  0.00000000E+00
  0.00000000E+00  0.00000000E+00  0.00000000E+00
  0.00000000E+00  0.00000000E+00  0.00000000E+00
  0.00000000E+00  0.00000000E+00  0.00000000E+00
  0.00000000E+00  0.00000000E+00  0.00000000E+00
