B N C F O                               
   1.00000000000000     
     7.5365500567000003  -13.0537460594369996    0.0000000000000000
     7.5365500567000003   13.0537460594369996    0.0000000000000000
     0.0000000000000000    0.0000000000000000   35.1146643855649998
   B    N    C    F    O 
    36    36     3     5     2
Selective dynamics
Direct
  0.1111027496871749  0.0555518832597817  0.5000167257946242   T   T   T
  0.1110952804239722  0.2222170426353300  0.5000003642011814   T   T   T
  0.1111053260385038  0.3888890549926299  0.4999659678058058   T   T   T
  0.1111101957178850  0.5555555211902478  0.4999818597024824   T   T   T
  0.1111095860235646  0.7222216947624902  0.5000123826081453   T   T   T
  0.1111087769488976  0.8888885934492087  0.5000236422040262   T   T   T
  0.2777760090716402  0.0555508293717042  0.5000257318576691   T   T   T
  0.2777673366666403  0.2222090237579951  0.4999952884912566   T   T   T
  0.2777661843171547  0.3888968522579892  0.4999447137136679   T   T   T
  0.2777764893182679  0.5555585372548193  0.4999563451916886   T   T   T
  0.2777759805425657  0.7222210822040013  0.4999882386972925   T   T   T
  0.2777758321360529  0.8888876943558464  0.5000192188088155   T   T   T
  0.4444443846643873  0.0555534579463206  0.5000274734475837   T   T   T
  0.4444481030420533  0.2222162365450714  0.5000335485982533   T   T   T
  0.4444552697902957  0.3888978092992290  0.4999788651817977   T   T   T
  0.4444455624460989  0.5555651452537080  0.4999760775946865   T   T   T
  0.4444441993914733  0.7222234805894054  0.4999777529470147   T   T   T
  0.4444430000719822  0.8888878178513764  0.5000064309658216   T   T   T
  0.6111092579789141  0.0555547316521898  0.5000196772107441   T   T   T
  0.6111110558714479  0.2222205531671873  0.5000257418635687   T   T   T
  0.6111129269366536  0.3888895976556725  0.5000110497574528   T   T   T
  0.6111099636069265  0.5555603974543427  0.4999897264826491   T   T   T
  0.6111072022055533  0.7222227362236220  0.4999866460485580   T   T   T
  0.6111086540086453  0.8888876759326321  0.5000028812499852   T   T   T
  0.7777756887495479  0.0555549975480568  0.5000153979886219   T   T   T
  0.7777762106963942  0.2222227208051390  0.5000146560815277   T   T   T
  0.7777763179699598  0.3888898916282924  0.5000149513347354   T   T   T
  0.7777746117871257  0.5555558903578548  0.5000069257436266   T   T   T
  0.7777738468576632  0.7222212984571116  0.5000032280065714   T   T   T
  0.7777741489069547  0.8888877723053414  0.5000096961160293   T   T   T
  0.9444389215488057  0.0555544328361409  0.5000141561498189   T   T   T
  0.9444402529974795  0.2222214992136219  0.5000003538236339   T   T   T
  0.9444431109404550  0.3888901402384971  0.4999977782711731   T   T   T
  0.9444425689852983  0.5555559756947988  0.5000113146537426   T   T   T
  0.9444414751220628  0.7222216105360089  0.5000185646615930   T   T   T
  0.9444409406349931  0.8888879945569629  0.5000193196108405   T   T   T
  0.0555525115857051  0.1111113148812062  0.5000078958234203   T   T   T
  0.0555530654636097  0.2777783241097989  0.4999799747011637   T   T   T
  0.0555526439942600  0.4444447891491883  0.4999722267481678   T   T   T
  0.0555537244897754  0.6111110839228544  0.5000007790509188   T   T   T
  0.0555534869626753  0.7777774556325713  0.5000198475992875   T   T   T
  0.0555525759341022  0.9444437397455702  0.5000198025280005   T   T   T
  0.2222190348279288  0.1111090214886086  0.5000133556639234   T   T   T
  0.2222242791328792  0.2777811620500504  0.4999947270461631   T   T   T
  0.2222186409010989  0.4444455154106993  0.4999255701479522   T   T   T
  0.2222202494373239  0.6111116048250214  0.4999639108081027   T   T   T
  0.2222207203410722  0.7777775870044920  0.5000059777430375   T   T   T
  0.2222201816307615  0.9444433076775005  0.5000230556938835   T   T   T
  0.3888870492598120  0.1111111592114055  0.5000312219568964   T   T   T
  0.3888841298536732  0.2777807622954588  0.5000291420990627   T   T   T
  0.3888778748568625  0.4444345875428796  0.4999755079199131   T   T   T
  0.3888867786607972  0.6111089150305287  0.4999557391493806   T   T   T
  0.3888874637039245  0.7777776324485206  0.4999832455839329   T   T   T
  0.3888874159430306  0.9444439947925032  0.5000173376993153   T   T   T
  0.5555540593993324  0.1111109073631812  0.5000231021409954   T   T   T
  0.5555524650169935  0.2777772728067661  0.5000262815541017   T   T   T
  0.5555524001213616  0.4444438042145245  0.4999866113697504   T   T   T
  0.5555483707596136  0.6111080547814161  0.4999718779142129   T   T   T
  0.5555538134280146  0.7777785372723930  0.4999802958822735   T   T   T
  0.5555535798080147  0.9444441018918592  0.5000088442007620   T   T   T
  0.7222205069613568  0.1111114424533205  0.5000164490382271   T   T   T
  0.7222201728418477  0.2777780068962061  0.5000164866216456   T   T   T
  0.7222208804439499  0.4444446482657088  0.5000070364588530   T   T   T
  0.7222193948624570  0.6111111134289542  0.4999919587341384   T   T   T
  0.7222186248032678  0.7777769169438058  0.4999946683012572   T   T   T
  0.7222199035493668  0.9444442320078061  0.5000094124702462   T   T   T
  0.8888860879874002  0.1111109304105390  0.5000082655243318   T   T   T
  0.8888868257662774  0.2777782272678376  0.5000000494959206   T   T   T
  0.8888867331106358  0.4444448431244788  0.5000081629156651   T   T   T
  0.8888865500859907  0.6111109938334690  0.5000127384832922   T   T   T
  0.8888858325564598  0.7777773019563192  0.5000135794114885   T   T   T
  0.8888860125406519  0.9444442117903100  0.5000145907162685   T   T   T
  0.3725447792388957  0.3133896937908804  0.6731550530048336   T   T   T
  0.3537967301272232  0.3164351337090466  0.6302633394042170   T   T   T
  0.3426818493818968  0.4089030476566541  0.6179198827200124   T   T   T
  0.4608771037519032  0.3959681864712851  0.6836689649530487   T   T   T
  0.3775712250846378  0.2293092653481235  0.6820354409456536   T   T   T
  0.2957778350206071  0.3116624316586510  0.6932095024404064   T   T   T
  0.4339360530541407  0.3176243815125536  0.6117092303323739   T   T   T
  0.2676095999170179  0.2266196389335291  0.6214975931752436   T   T   T
  0.4237617691306453  0.4911962774681418  0.6121990083384494   T   T   T
  0.2540126538181927  0.3946277038767106  0.6151248144821533   T   T   T
 
  0.00000000E+00  0.00000000E+00  0.00000000E+00
  0.00000000E+00  0.00000000E+00  0.00000000E+00
  0.00000000E+00  0.00000000E+00  0.00000000E+00
  0.00000000E+00  0.00000000E+00  0.00000000E+00
  0.00000000E+00  0.00000000E+00  0.00000000E+00
  0.00000000E+00  0.00000000E+00  0.00000000E+00
  0.00000000E+00  0.00000000E+00  0.00000000E+00
  0.00000000E+00  0.00000000E+00  0.00000000E+00
  0.00000000E+00  0.00000000E+00  0.00000000E+00
  0.00000000E+00  0.00000000E+00  0.00000000E+00
  0.00000000E+00  0.00000000E+00  0.00000000E+00
  0.00000000E+00  0.00000000E+00  0.00000000E+00
  0.00000000E+00  0.00000000E+00  0.00000000E+00
  0.00000000E+00  0.00000000E+00  0.00000000E+00
  0.00000000E+00  0.00000000E+00  0.00000000E+00
  0.00000000E+00  0.00000000E+00  0.00000000E+00
  0.00000000E+00  0.00000000E+00  0.00000000E+00
  0.00000000E+00  0.00000000E+00  0.00000000E+00
  0.00000000E+00  0.00000000E+00  0.00000000E+00
  0.00000000E+00  0.00000000E+00  0.00000000E+00
  0.00000000E+00  0.00000000E+00  0.00000000E+00
  0.00000000E+00  0.00000000E+00  0.00000000E+00
  0.00000000E+00  0.00000000E+00  0.00000000E+00
  0.00000000E+00  0.00000000E+00  0.00000000E+00
  0.00000000E+00  0.00000000E+00  0.00000000E+00
  0.00000000E+00  0.00000000E+00  0.00000000E+00
  0.00000000E+00  0.00000000E+00  0.00000000E+00
  0.00000000E+00  0.00000000E+00  0.00000000E+00
  0.00000000E+00  0.00000000E+00  0.00000000E+00
  0.00000000E+00  0.00000000E+00  0.00000000E+00
  0.00000000E+00  0.00000000E+00  0.00000000E+00
  0.00000000E+00  0.00000000E+00  0.00000000E+00
  0.00000000E+00  0.00000000E+00  0.00000000E+00
  0.00000000E+00  0.00000000E+00  0.00000000E+00
  0.00000000E+00  0.00000000E+00  0.00000000E+00
  0.00000000E+00  0.00000000E+00  0.00000000E+00
  0.00000000E+00  0.00000000E+00  0.00000000E+00
  0.00000000E+00  0.00000000E+00  0.00000000E+00
  0.00000000E+00  0.00000000E+00  0.00000000E+00
  0.00000000E+00  0.00000000E+00  0.00000000E+00
  0.00000000E+00  0.00000000E+00  0.00000000E+00
  0.00000000E+00  0.00000000E+00  0.00000000E+00
  0.00000000E+00  0.00000000E+00  0.00000000E+00
  0.00000000E+00  0.00000000E+00  0.00000000E+00
  0.00000000E+00  0.00000000E+00  0.00000000E+00
  0.00000000E+00  0.00000000E+00  0.00000000E+00
  0.00000000E+00  0.00000000E+00  0.00000000E+00
  0.00000000E+00  0.00000000E+00  0.00000000E+00
  0.00000000E+00  0.00000000E+00  0.00000000E+00
  0.00000000E+00  0.00000000E+00  0.00000000E+00
  0.00000000E+00  0.00000000E+00  0.00000000E+00
  0.00000000E+00  0.00000000E+00  0.00000000E+00
  0.00000000E+00  0.00000000E+00  0.00000000E+00
  0.00000000E+00  0.00000000E+00  0.00000000E+00
  0.00000000E+00  0.00000000E+00  0.00000000E+00
  0.00000000E+00  0.00000000E+00  0.00000000E+00
  0.00000000E+00  0.00000000E+00  0.00000000E+00
  0.00000000E+00  0.00000000E+00  0.00000000E+00
  0.00000000E+00  0.00000000E+00  0.00000000E+00
  0.00000000E+00  0.00000000E+00  0.00000000E+00
  0.00000000E+00  0.00000000E+00  0.00000000E+00
  0.00000000E+00  0.00000000E+00  0.00000000E+00
  0.00000000E+00  0.00000000E+00  0.00000000E+00
  0.00000000E+00  0.00000000E+00  0.00000000E+00
  0.00000000E+00  0.00000000E+00  0.00000000E+00
  0.00000000E+00  0.00000000E+00  0.00000000E+00
  0.00000000E+00  0.00000000E+00  0.00000000E+00
  0.00000000E+00  0.00000000E+00  0.00000000E+00
  0.00000000E+00  0.00000000E+00  0.00000000E+00
  0.00000000E+00  0.00000000E+00  0.00000000E+00
  0.00000000E+00  0.00000000E+00  0.00000000E+00
  0.00000000E+00  0.00000000E+00  0.00000000E+00
  0.00000000E+00  0.00000000E+00  0.00000000E+00
  0.00000000E+00  0.00000000E+00  0.00000000E+00
  0.00000000E+00  0.00000000E+00  0.00000000E+00
  0.00000000E+00  0.00000000E+00  0.00000000E+00
  0.00000000E+00  0.00000000E+00  0.00000000E+00
  0.00000000E+00  0.00000000E+00  0.00000000E+00
  0.00000000E+00  0.00000000E+00  0.00000000E+00
  0.00000000E+00  0.00000000E+00  0.00000000E+00
  0.00000000E+00  0.00000000E+00  0.00000000E+00
  0.00000000E+00  0.00000000E+00  0.00000000E+00
