B N C F O                               
   1.00000000000000     
     7.5365500567000003  -13.0537460594369996    0.0000000000000000
     7.5365500567000003   13.0537460594369996    0.0000000000000000
     0.0000000000000000    0.0000000000000000   35.1146643855649998
   B    N    C    F    O 
    36    36     3     5     2
Selective dynamics
Direct
  0.1111166328786686  0.0556229845962784  0.5003436232793991   T   T   T
  0.1111068248472203  0.2222860689751744  0.5003417458045248   T   T   T
  0.1111091294921004  0.3889576014561061  0.5003497702767877   T   T   T
  0.1111181787975160  0.5556337612987474  0.5002808273110037   T   T   T
  0.1111269630337630  0.7223029024393564  0.5002734156589785   T   T   T
  0.1111254236078413  0.8889668904084568  0.5002705239068406   T   T   T
  0.2777921447191232  0.0556192521006059  0.5003804094686927   T   T   T
  0.2777821672057685  0.2222773791323242  0.5004564818320707   T   T   T
  0.2777877694385359  0.3889532008160843  0.5003824069782938   T   T   T
  0.2777959907331940  0.5556504424706928  0.5002865599340752   T   T   T
  0.2778021498897264  0.7223139751876806  0.5002714961409863   T   T   T
  0.2777985284331729  0.8889657913454990  0.5002887673194869   T   T   T
  0.4444687323363509  0.0556280634158625  0.5003309013644177   T   T   T
  0.4444707703215443  0.2222886891857263  0.5004736732232815   T   T   T
  0.4444785072765123  0.3889656320177512  0.5004810089785605   T   T   T
  0.4444853122640155  0.5556546221361209  0.5003501878647724   T   T   T
  0.4444741841824875  0.7223108248598219  0.5003258028233253   T   T   T
  0.4444698789290122  0.8889721359962188  0.5003002705385806   T   T   T
  0.6111314993437053  0.0556336589942062  0.5003007665530378   T   T   T
  0.6111330783043856  0.2222921066318914  0.5003479179588111   T   T   T
  0.6111375416768413  0.3889635479317459  0.5003769922950021   T   T   T
  0.6111385334313226  0.5556384871979394  0.5003421281572485   T   T   T
  0.6111357320998357  0.7223105328627429  0.5003101364907347   T   T   T
  0.6111324298922829  0.8889734866355441  0.5002831813720537   T   T   T
  0.7777932016480443  0.0556370349391779  0.5002840435368504   T   T   T
  0.7777932365236666  0.2223008290854151  0.5003125372269307   T   T   T
  0.7777951317565729  0.3889686374284028  0.5002799319726075   T   T   T
  0.7777966930842235  0.5556396562778341  0.5002815801518802   T   T   T
  0.7777939728982171  0.7223070869059504  0.5002937414743776   T   T   T
  0.7777943978023755  0.8889735936234144  0.5002963349277195   T   T   T
  0.9444533088881601  0.0556319491861799  0.5002996102056394   T   T   T
  0.9444518844949231  0.2222977606486184  0.5002922929106570   T   T   T
  0.9444522244655015  0.3889632318022860  0.5002947859150431   T   T   T
  0.9444577897814688  0.5556364142657511  0.5002750499304689   T   T   T
  0.9444585184364648  0.7223034135103159  0.5002749391121782   T   T   T
  0.9444554827080025  0.8889671866786730  0.5002805391881917   T   T   T
  0.0555756328136043  0.1111917356165435  0.5003274532145153   T   T   T
  0.0555766147655271  0.2778597399706257  0.5003112171552719   T   T   T
  0.0555764440505007  0.4445241263564679  0.5003114506321409   T   T   T
  0.0555743075109854  0.6111920818211635  0.5002784981181306   T   T   T
  0.0555745823085193  0.7778589778822831  0.5002667228739642   T   T   T
  0.0555736698194824  0.9445252031655621  0.5002661141104789   T   T   T
  0.2222404325129000  0.1111859780821036  0.5004273701820561   T   T   T
  0.2222407238521376  0.2778522597418652  0.5003882332975865   T   T   T
  0.2222510061107037  0.4445276179776627  0.5003899826675816   T   T   T
  0.2222420288610979  0.6111914854041510  0.5002527561055450   T   T   T
  0.2222414048832234  0.7778559061188777  0.5002688684963102   T   T   T
  0.2222411903198294  0.9445210426912851  0.5002925246276470   T   T   T
  0.3889052649154619  0.1111898735382989  0.5003985962908097   T   T   T
  0.3888977797394337  0.2778494214742894  0.5005640680388964   T   T   T
  0.3889041804277893  0.4445211701694300  0.5004337634943371   T   T   T
  0.3888986323247213  0.6111795838383244  0.5003257457560525   T   T   T
  0.3889075232800601  0.7778529336396894  0.5003106556018040   T   T   T
  0.3889068205104986  0.9445220457640758  0.5002990689812430   T   T   T
  0.5555700324930837  0.1111872335690011  0.5003083625633383   T   T   T
  0.5555669766820335  0.2778501460011431  0.5004186458632184   T   T   T
  0.5555678941566914  0.4445156119639794  0.5004184390454920   T   T   T
  0.5555708489701759  0.6111860752253588  0.5003137435347118   T   T   T
  0.5555709047134560  0.7778546052435197  0.5003047932429586   T   T   T
  0.5555719190454336  0.9445227208873610  0.5002832486544458   T   T   T
  0.7222386902877336  0.1111933475101976  0.5003131513118279   T   T   T
  0.7222374523419534  0.2778576731240817  0.5003132375762738   T   T   T
  0.7222379469990274  0.4445251550078365  0.5002745728019135   T   T   T
  0.7222372884164919  0.6111909939825002  0.5002971968971102   T   T   T
  0.7222386203134999  0.7778602785098142  0.5003052006683294   T   T   T
  0.7222388159012213  0.9445267133963723  0.5002659095591608   T   T   T
  0.8889093045856559  0.1111946122040776  0.5002731320771604   T   T   T
  0.8889073934602950  0.2778586872747267  0.5002964999763595   T   T   T
  0.8889070924098313  0.4445261218900778  0.5002632973806687   T   T   T
  0.8889058462656708  0.6111931602670178  0.5002771620289476   T   T   T
  0.8889049187820406  0.7778586370400572  0.5002724153890885   T   T   T
  0.8889076576505407  0.9445272172105793  0.5003023580309250   T   T   T
  0.3770083895368170  0.2983675584363367  0.6586946044687040   T   T   T
  0.3622359160702175  0.2665193371267099  0.6174322208791955   T   T   T
  0.3143180483189022  0.5224932121388524  0.6092636183522862   T   T   T
  0.4668169743563939  0.3851349275227050  0.6632691416928433   T   T   T
  0.3771295303411534  0.2265143597797411  0.6818013586199867   T   T   T
  0.3010127835957778  0.3139926518614843  0.6701683051322348   T   T   T
  0.4383114239611821  0.2575000264841483  0.6026421189676859   T   T   T
  0.2715022295495287  0.1859320469770530  0.6096652546927185   T   T   T
  0.4021026828429748  0.5775118685963284  0.6060229613506257   T   T   T
  0.2265376285601531  0.4672288479656534  0.6123542923159366   T   T   T
 
  0.00000000E+00  0.00000000E+00  0.00000000E+00
  0.00000000E+00  0.00000000E+00  0.00000000E+00
  0.00000000E+00  0.00000000E+00  0.00000000E+00
  0.00000000E+00  0.00000000E+00  0.00000000E+00
  0.00000000E+00  0.00000000E+00  0.00000000E+00
  0.00000000E+00  0.00000000E+00  0.00000000E+00
  0.00000000E+00  0.00000000E+00  0.00000000E+00
  0.00000000E+00  0.00000000E+00  0.00000000E+00
  0.00000000E+00  0.00000000E+00  0.00000000E+00
  0.00000000E+00  0.00000000E+00  0.00000000E+00
  0.00000000E+00  0.00000000E+00  0.00000000E+00
  0.00000000E+00  0.00000000E+00  0.00000000E+00
  0.00000000E+00  0.00000000E+00  0.00000000E+00
  0.00000000E+00  0.00000000E+00  0.00000000E+00
  0.00000000E+00  0.00000000E+00  0.00000000E+00
  0.00000000E+00  0.00000000E+00  0.00000000E+00
  0.00000000E+00  0.00000000E+00  0.00000000E+00
  0.00000000E+00  0.00000000E+00  0.00000000E+00
  0.00000000E+00  0.00000000E+00  0.00000000E+00
  0.00000000E+00  0.00000000E+00  0.00000000E+00
  0.00000000E+00  0.00000000E+00  0.00000000E+00
  0.00000000E+00  0.00000000E+00  0.00000000E+00
  0.00000000E+00  0.00000000E+00  0.00000000E+00
  0.00000000E+00  0.00000000E+00  0.00000000E+00
  0.00000000E+00  0.00000000E+00  0.00000000E+00
  0.00000000E+00  0.00000000E+00  0.00000000E+00
  0.00000000E+00  0.00000000E+00  0.00000000E+00
  0.00000000E+00  0.00000000E+00  0.00000000E+00
  0.00000000E+00  0.00000000E+00  0.00000000E+00
  0.00000000E+00  0.00000000E+00  0.00000000E+00
  0.00000000E+00  0.00000000E+00  0.00000000E+00
  0.00000000E+00  0.00000000E+00  0.00000000E+00
  0.00000000E+00  0.00000000E+00  0.00000000E+00
  0.00000000E+00  0.00000000E+00  0.00000000E+00
  0.00000000E+00  0.00000000E+00  0.00000000E+00
  0.00000000E+00  0.00000000E+00  0.00000000E+00
  0.00000000E+00  0.00000000E+00  0.00000000E+00
  0.00000000E+00  0.00000000E+00  0.00000000E+00
  0.00000000E+00  0.00000000E+00  0.00000000E+00
  0.00000000E+00  0.00000000E+00  0.00000000E+00
  0.00000000E+00  0.00000000E+00  0.00000000E+00
  0.00000000E+00  0.00000000E+00  0.00000000E+00
  0.00000000E+00  0.00000000E+00  0.00000000E+00
  0.00000000E+00  0.00000000E+00  0.00000000E+00
  0.00000000E+00  0.00000000E+00  0.00000000E+00
  0.00000000E+00  0.00000000E+00  0.00000000E+00
  0.00000000E+00  0.00000000E+00  0.00000000E+00
  0.00000000E+00  0.00000000E+00  0.00000000E+00
  0.00000000E+00  0.00000000E+00  0.00000000E+00
  0.00000000E+00  0.00000000E+00  0.00000000E+00
  0.00000000E+00  0.00000000E+00  0.00000000E+00
  0.00000000E+00  0.00000000E+00  0.00000000E+00
  0.00000000E+00  0.00000000E+00  0.00000000E+00
  0.00000000E+00  0.00000000E+00  0.00000000E+00
  0.00000000E+00  0.00000000E+00  0.00000000E+00
  0.00000000E+00  0.00000000E+00  0.00000000E+00
  0.00000000E+00  0.00000000E+00  0.00000000E+00
  0.00000000E+00  0.00000000E+00  0.00000000E+00
  0.00000000E+00  0.00000000E+00  0.00000000E+00
  0.00000000E+00  0.00000000E+00  0.00000000E+00
  0.00000000E+00  0.00000000E+00  0.00000000E+00
  0.00000000E+00  0.00000000E+00  0.00000000E+00
  0.00000000E+00  0.00000000E+00  0.00000000E+00
  0.00000000E+00  0.00000000E+00  0.00000000E+00
  0.00000000E+00  0.00000000E+00  0.00000000E+00
  0.00000000E+00  0.00000000E+00  0.00000000E+00
  0.00000000E+00  0.00000000E+00  0.00000000E+00
  0.00000000E+00  0.00000000E+00  0.00000000E+00
  0.00000000E+00  0.00000000E+00  0.00000000E+00
  0.00000000E+00  0.00000000E+00  0.00000000E+00
  0.00000000E+00  0.00000000E+00  0.00000000E+00
  0.00000000E+00  0.00000000E+00  0.00000000E+00
  0.00000000E+00  0.00000000E+00  0.00000000E+00
  0.00000000E+00  0.00000000E+00  0.00000000E+00
  0.00000000E+00  0.00000000E+00  0.00000000E+00
  0.00000000E+00  0.00000000E+00  0.00000000E+00
  0.00000000E+00  0.00000000E+00  0.00000000E+00
  0.00000000E+00  0.00000000E+00  0.00000000E+00
  0.00000000E+00  0.00000000E+00  0.00000000E+00
  0.00000000E+00  0.00000000E+00  0.00000000E+00
  0.00000000E+00  0.00000000E+00  0.00000000E+00
  0.00000000E+00  0.00000000E+00  0.00000000E+00
