C F O                                   
   1.00000000000000     
    23.2260577599999998    0.0000000000000000    0.0000000000000000
     0.0000000000000000   29.4986300200000002    0.0000000000000000
     0.0000000000000000    0.0000000000000000   23.2745895099999984
   C    F    O 
     7    13     2
Selective dynamics
Direct
  0.4825396602931396  0.4482198583058141  0.4896856217760780   T   T   T
  0.5177872397062470  0.4922226344466547  0.4997814518940082   T   T   T
  0.5118355848649729  0.4041866948407941  0.5104212056214337   T   T   T
  0.4815963335934189  0.5364564599973181  0.4954397510208590   T   T   T
  0.5185908995867793  0.5797101404048315  0.4864848312684361   T   T   T
  0.4868567270782027  0.6247355052715635  0.4995711289210186   T   T   T
  0.4854677163536669  0.3605015023557350  0.4831357131094305   T   T   T
  0.4729859159209087  0.4443369905888878  0.4322029324289979   T   T   T
  0.4310048861915702  0.4534880810786375  0.5163707510223502   T   T   T
  0.5414003117040522  0.4906259168488585  0.5529751208743509   T   T   T
  0.5607480294946413  0.4945993458737810  0.4604749396217039   T   T   T
  0.4447293299720416  0.5328914315587656  0.4506018947409775   T   T   T
  0.4506106632645415  0.5415436292628749  0.5443082997770937   T   T   T
  0.5654564563715183  0.5777920506390025  0.5210190238152045   T   T   T
  0.5361582618007165  0.5813154823364557  0.4311756194640697   T   T   T
  0.5191056309656490  0.6592453811179858  0.4805746415664967   T   T   T
  0.4358552998856162  0.6257512636571979  0.4726790469898269   T   T   T
  0.4784738286806130  0.6299102307952286  0.5560165736562550   T   T   T
  0.5067261574104777  0.4022490185969077  0.5691207746088314   T   T   T
  0.5694205521415889  0.4084988396467240  0.4988600079082899   T   T   T
  0.4328048990486942  0.3567759186219149  0.4923778855841220   T   T   T
  0.5196816183189210  0.3356161482210560  0.4568953936471690   T   T   T
 
  0.00000000E+00  0.00000000E+00  0.00000000E+00
  0.00000000E+00  0.00000000E+00  0.00000000E+00
  0.00000000E+00  0.00000000E+00  0.00000000E+00
  0.00000000E+00  0.00000000E+00  0.00000000E+00
  0.00000000E+00  0.00000000E+00  0.00000000E+00
  0.00000000E+00  0.00000000E+00  0.00000000E+00
  0.00000000E+00  0.00000000E+00  0.00000000E+00
  0.00000000E+00  0.00000000E+00  0.00000000E+00
  0.00000000E+00  0.00000000E+00  0.00000000E+00
  0.00000000E+00  0.00000000E+00  0.00000000E+00
  0.00000000E+00  0.00000000E+00  0.00000000E+00
  0.00000000E+00  0.00000000E+00  0.00000000E+00
  0.00000000E+00  0.00000000E+00  0.00000000E+00
  0.00000000E+00  0.00000000E+00  0.00000000E+00
  0.00000000E+00  0.00000000E+00  0.00000000E+00
  0.00000000E+00  0.00000000E+00  0.00000000E+00
  0.00000000E+00  0.00000000E+00  0.00000000E+00
  0.00000000E+00  0.00000000E+00  0.00000000E+00
  0.00000000E+00  0.00000000E+00  0.00000000E+00
  0.00000000E+00  0.00000000E+00  0.00000000E+00
  0.00000000E+00  0.00000000E+00  0.00000000E+00
  0.00000000E+00  0.00000000E+00  0.00000000E+00
