B N C F O                               
   1.00000000000000     
     5.0243667044670000   -8.7024973729579997    0.0000000000000000
     5.0243667044670000    8.7024973729579997    0.0000000000000000
     0.0000000000000000    0.0000000000000000   35.1146643855649998
   B    N    C    F    O 
    16    16     3     5     2
Selective dynamics
Direct
  0.1666461324770501  0.0833682790440854  0.5000311834830348   T   T   T
  0.1666306165246897  0.3333575304503419  0.5000512729260964   T   T   T
  0.1666370428739475  0.5833682320506099  0.5000393043845716   T   T   T
  0.1666583999323138  0.8333880405686220  0.5000195268896155   T   T   T
  0.4166659304583940  0.0833756058310018  0.5000338967636894   T   T   T
  0.4166470052163822  0.3333416279776714  0.5000541753949445   T   T   T
  0.4166282338273564  0.5833701242412662  0.5000480813630445   T   T   T
  0.4166580268450993  0.8333908151001312  0.5000416323737109   T   T   T
  0.6666771157624072  0.0833864189345213  0.5000456786441011   T   T   T
  0.6666794519155633  0.3333660913211499  0.5000651708194664   T   T   T
  0.6666843891500324  0.5833755145463332  0.5000776332257040   T   T   T
  0.6666824710820841  0.8334040648169944  0.5000820912796143   T   T   T
  0.9166588694526674  0.0833837794515590  0.5000386049988753   T   T   T
  0.9166603798458154  0.3333759926378949  0.5000379759961483   T   T   T
  0.9166681819850135  0.5833726541162638  0.5000507938404392   T   T   T
  0.9166671061789456  0.8333804510589374  0.5000516098275787   T   T   T
  0.0833280263500814  0.1667204441691003  0.5000369909900717   T   T   T
  0.0833375669590925  0.4167212487798040  0.5000385618260151   T   T   T
  0.0833290824774056  0.6667258137496708  0.5000246501634665   T   T   T
  0.0833201937979602  0.9167189403690501  0.5000226734944568   T   T   T
  0.3333281043794302  0.1667202948390201  0.5000355077118475   T   T   T
  0.3333409505559012  0.4167219732824556  0.5000803195390184   T   T   T
  0.3333298656593661  0.6667179522057400  0.5000425247337666   T   T   T
  0.3333347798716622  0.9167240253202513  0.5000170679528222   T   T   T
  0.5833303208931625  0.1667179734716601  0.5000505073493067   T   T   T
  0.5833134190111678  0.4167167884030031  0.5001078913589183   T   T   T
  0.5832994972084544  0.6666898178939835  0.5001447148318869   T   T   T
  0.5833270802324686  0.9167045904068096  0.5000654930648335   T   T   T
  0.8333272510804417  0.1667209865870489  0.5000292259394649   T   T   T
  0.8333200682641487  0.4167199617034675  0.5000576382105438   T   T   T
  0.8333065977871601  0.6667067850015644  0.5000675560480293   T   T   T
  0.8333142694695713  0.9167072526760417  0.5000526700428813   T   T   T
  0.5603432566360534  0.4695570413272451  0.6729052172922448   T   T   T
  0.5327818158354843  0.4653399566732546  0.6297839283309776   T   T   T
  0.5135430515056388  0.6387782378424013  0.6167363837766479   T   T   T
  0.6929750994478759  0.5939729668327786  0.6823791129013355   T   T   T
  0.5666978169621132  0.3437877410513739  0.6830605925273234   T   T   T
  0.4452556461848045  0.4700815814380597  0.6918973040425174   T   T   T
  0.6504761496703727  0.4757333768745201  0.6102135232632945   T   T   T
  0.4032880439505397  0.3402398371104788  0.6199812870890020   T   T   T
  0.6436306571925294  0.7417072917356216  0.6130282108805472   T   T   T
  0.3779185370806701  0.5921262206862762  0.6161687439594613   T   T   T
 
             NaN             NaN             NaN
             NaN             NaN             NaN
             NaN             NaN             NaN
             NaN             NaN             NaN
             NaN             NaN             NaN
             NaN             NaN             NaN
             NaN             NaN             NaN
             NaN             NaN             NaN
             NaN             NaN             NaN
             NaN             NaN             NaN
             NaN             NaN             NaN
             NaN             NaN             NaN
             NaN             NaN             NaN
             NaN             NaN             NaN
             NaN             NaN             NaN
             NaN             NaN             NaN
             NaN             NaN             NaN
             NaN             NaN             NaN
             NaN             NaN             NaN
             NaN             NaN             NaN
             NaN             NaN             NaN
             NaN             NaN             NaN
             NaN             NaN             NaN
             NaN             NaN             NaN
             NaN             NaN             NaN
             NaN             NaN             NaN
             NaN             NaN             NaN
             NaN             NaN             NaN
             NaN             NaN             NaN
             NaN             NaN             NaN
             NaN             NaN             NaN
             NaN             NaN             NaN
             NaN             NaN             NaN
             NaN             NaN             NaN
             NaN             NaN             NaN
             NaN             NaN             NaN
             NaN             NaN             NaN
             NaN             NaN             NaN
             NaN             NaN             NaN
             NaN             NaN             NaN
             NaN             NaN             NaN
             NaN             NaN             NaN
