B H N O                                 
   1.00000000000000     
     0.0000000000000000   -8.7025000000000006    0.0000000000000000
    15.0000000000000000    0.0000000000000000    0.0000000000000000
     0.0000000000000000    0.0000000000000000   45.0000000000000000
   B    H    N    O 
    18     4    14     8
Selective dynamics
Direct
  0.3202133817902225  0.5017055542365313  0.4448328155922670   T   T   T
  0.3195860821583735  0.5011362063074859  0.5003861159524637   T   T   T
  0.3201638582578468  0.5004692679970845  0.5559431505589917   T   T   T
  0.3122148216485822  0.4980990776427556  0.6108792940199103   T   T   T
  0.8202397739092936  0.5033854577964925  0.4448237973559983   T   T   T
  0.8196173139682595  0.5012352391865749  0.5003816503263145   T   T   T
  0.8201599422466835  0.5016886973345999  0.5559425156245351   T   T   T
  0.8122239346596355  0.5059281226590476  0.6108733098912312   T   T   T
  0.0703790546279198  0.5024099779705720  0.4173712031893390   T   T   T
  0.0696780487101055  0.5018642334338190  0.4727296787457899   T   T   T
  0.0696240396642681  0.5008567465318096  0.5280264309212140   T   T   T
  0.0702502327292263  0.5012692264756868  0.5833847494868728   T   T   T
  0.5703435052735869  0.5036972819849203  0.4173884429146204   T   T   T
  0.5697064318263527  0.5019853557245108  0.4727308385678773   T   T   T
  0.5696297860384293  0.5007726901205528  0.5280223496212310   T   T   T
  0.5702664762170278  0.5017004263490031  0.5833837017166414   T   T   T
  0.3123438530685442  0.4979123513350007  0.3899194055515485   T   T   T
  0.8122658028579964  0.5079726357476653  0.3899186816310242   T   T   T
  0.2995844045765476  0.4927022048804809  0.6539065451011546   T   T   T
  0.2999150617424233  0.4891125210308526  0.3469435798535040   T   T   T
  0.7995757132613144  0.5126248336646974  0.6538884270700058   T   T   T
  0.7998931864478295  0.5151531361159938  0.3469064478669321   T   T   T
  0.1532987384085953  0.5020743580508701  0.4450836430992909   T   T   T
  0.1532077738474654  0.5011058378574753  0.5003767428793476   T   T   T
  0.1532345211587395  0.5006197789698607  0.5556736667961185   T   T   T
  0.6533222947760083  0.5035084933631745  0.4450894219750577   T   T   T
  0.6532335782616298  0.5009888658822270  0.5003763794424284   T   T   T
  0.6532246659617769  0.5012098429809465  0.5556721064297755   T   T   T
  0.4037074572710975  0.5011825142256382  0.4168500802724459   T   T   T
  0.4032582454396230  0.5017206213370319  0.4726234748789434   T   T   T
  0.4032117507670428  0.5006697038082707  0.5281507426359106   T   T   T
  0.4036011145830324  0.5002514622030341  0.5839387259639612   T   T   T
  0.9037049843753477  0.5042998480443859  0.4168360531413276   T   T   T
  0.9032534126391133  0.5021477770066344  0.4726157624739893   T   T   T
  0.9032058250673278  0.5008174520186565  0.5281501018254521   T   T   T
  0.9035911471897027  0.5031671380957956  0.5839358830360641   T   T   T
  0.1538816760441012  0.4994443362834217  0.6091993160918167   T   T   T
  0.6538880085197208  0.5041782210365322  0.6091889106479774   T   T   T
  0.3763554526038116  0.4942615267462500  0.6383964697798659   T   T   T
  0.1540037411742425  0.5002199895285543  0.3915629834673891   T   T   T
  0.6538876907759440  0.5069301692236144  0.3915849319402548   T   T   T
  0.3765756861707932  0.4917034777489271  0.3624593872200335   T   T   T
  0.8763241668277705  0.5107317085916927  0.6383772524956840   T   T   T
  0.8765117579846387  0.5130479946288995  0.3624349589884014   T   T   T
 
  0.00000000E+00  0.00000000E+00  0.00000000E+00
  0.00000000E+00  0.00000000E+00  0.00000000E+00
  0.00000000E+00  0.00000000E+00  0.00000000E+00
  0.00000000E+00  0.00000000E+00  0.00000000E+00
  0.00000000E+00  0.00000000E+00  0.00000000E+00
  0.00000000E+00  0.00000000E+00  0.00000000E+00
  0.00000000E+00  0.00000000E+00  0.00000000E+00
  0.00000000E+00  0.00000000E+00  0.00000000E+00
  0.00000000E+00  0.00000000E+00  0.00000000E+00
  0.00000000E+00  0.00000000E+00  0.00000000E+00
  0.00000000E+00  0.00000000E+00  0.00000000E+00
  0.00000000E+00  0.00000000E+00  0.00000000E+00
  0.00000000E+00  0.00000000E+00  0.00000000E+00
  0.00000000E+00  0.00000000E+00  0.00000000E+00
  0.00000000E+00  0.00000000E+00  0.00000000E+00
  0.00000000E+00  0.00000000E+00  0.00000000E+00
  0.00000000E+00  0.00000000E+00  0.00000000E+00
  0.00000000E+00  0.00000000E+00  0.00000000E+00
  0.00000000E+00  0.00000000E+00  0.00000000E+00
  0.00000000E+00  0.00000000E+00  0.00000000E+00
  0.00000000E+00  0.00000000E+00  0.00000000E+00
  0.00000000E+00  0.00000000E+00  0.00000000E+00
  0.00000000E+00  0.00000000E+00  0.00000000E+00
  0.00000000E+00  0.00000000E+00  0.00000000E+00
  0.00000000E+00  0.00000000E+00  0.00000000E+00
  0.00000000E+00  0.00000000E+00  0.00000000E+00
  0.00000000E+00  0.00000000E+00  0.00000000E+00
  0.00000000E+00  0.00000000E+00  0.00000000E+00
  0.00000000E+00  0.00000000E+00  0.00000000E+00
  0.00000000E+00  0.00000000E+00  0.00000000E+00
  0.00000000E+00  0.00000000E+00  0.00000000E+00
  0.00000000E+00  0.00000000E+00  0.00000000E+00
  0.00000000E+00  0.00000000E+00  0.00000000E+00
  0.00000000E+00  0.00000000E+00  0.00000000E+00
  0.00000000E+00  0.00000000E+00  0.00000000E+00
  0.00000000E+00  0.00000000E+00  0.00000000E+00
  0.00000000E+00  0.00000000E+00  0.00000000E+00
  0.00000000E+00  0.00000000E+00  0.00000000E+00
  0.00000000E+00  0.00000000E+00  0.00000000E+00
  0.00000000E+00  0.00000000E+00  0.00000000E+00
  0.00000000E+00  0.00000000E+00  0.00000000E+00
  0.00000000E+00  0.00000000E+00  0.00000000E+00
  0.00000000E+00  0.00000000E+00  0.00000000E+00
  0.00000000E+00  0.00000000E+00  0.00000000E+00
