B N C F O                               
   1.00000000000000     
     5.0243667044670000   -8.7024973729579997    0.0000000000000000
     5.0243667044670000    8.7024973729579997    0.0000000000000000
     0.0000000000000000    0.0000000000000000   35.1146643855649998
   B    N    C    F    O 
    16    16     3     5     2
Selective dynamics
Direct
  0.1666461324770481  0.0833682790440875  0.5000311834830313   F   F   F
  0.1666306165246922  0.3333575304503427  0.5000512729260933   F   F   F
  0.1666370428739441  0.5833682320506099  0.5000393043845719   F   F   F
  0.1666583999323166  0.8333880405686216  0.5000195268896164   F   F   F
  0.4166659304583931  0.0833756058310016  0.5000338967636893   F   F   F
  0.4166470052163831  0.3333416279776742  0.5000541753949435   F   F   F
  0.4166282338273533  0.5833701242412630  0.5000480813630475   F   F   F
  0.4166580268450986  0.8333908151001310  0.5000416323737085   F   F   F
  0.6666771157624041  0.0833864189345235  0.5000456786440992   F   F   F
  0.6666794519155630  0.3333660913211531  0.5000651708194681   F   F   F
  0.6666843891500349  0.5833755145463329  0.5000776332257004   F   F   F
  0.6666824710820833  0.8334040648169960  0.5000820912796158   F   F   F
  0.9166588694526681  0.0833837794515588  0.5000386049988776   F   F   F
  0.9166603798458155  0.3333759926378974  0.5000379759961504   F   F   F
  0.9166681819850169  0.5833726541162605  0.5000507938404368   F   F   F
  0.9166671061789486  0.8333804510589360  0.5000516098275796   F   F   F
  0.0833280263500811  0.1667204441691013  0.5000369909900684   F   F   F
  0.0833375669590950  0.4167212487798011  0.5000385618260168   F   F   F
  0.0833290824774053  0.6667258137496717  0.5000246501634678   F   F   F
  0.0833201937979595  0.9167189403690514  0.5000226734944562   F   F   F
  0.3333281043794329  0.1667202948390170  0.5000355077118499   F   F   F
  0.3333409505559004  0.4167219732824563  0.5000803195390162   F   F   F
  0.3333298656593655  0.6667179522057367  0.5000425247337645   F   F   F
  0.3333347798716630  0.9167240253202493  0.5000170679528253   F   F   F
  0.5833303208931611  0.1667179734716626  0.5000505073493073   F   F   F
  0.5833134190111693  0.4167167884030007  0.5001078913589154   F   F   F
  0.5832994972084578  0.6666898178939817  0.5001447148318903   F   F   F
  0.5833270802324719  0.9167045904068090  0.5000654930648309   F   F   F
  0.8333272510804406  0.1667209865870518  0.5000292259394641   F   F   F
  0.8333200682641504  0.4167199617034640  0.5000576382105422   F   F   F
  0.8333065977871570  0.6667067850015655  0.5000675560480303   F   F   F
  0.8333142694695681  0.9167072526760407  0.5000526700428836   F   F   F
  0.5603432566360524  0.4695570413272421  0.6729052172922465   T   T   T
  0.5327818158354845  0.4653399566732546  0.6297839283309798   T   T   T
  0.5135430515056356  0.6387782378424021  0.6167363837766473   T   T   T
  0.6929750994478781  0.5939729668327800  0.6823791129013372   T   T   T
  0.5666978169621117  0.3437877410513721  0.6830605925273261   T   T   T
  0.4452556461848047  0.4700815814380590  0.6918973040425200   T   T   T
  0.6504761496703750  0.4757333768745227  0.6102135232632975   T   T   T
  0.4032880439505391  0.3402398371104809  0.6199812870890042   T   T   T
  0.6436306571925314  0.7417072917356222  0.6130282108805503   T   T   T
  0.3779185370806672  0.5921262206862750  0.6155991813465217   T   T   T
 
  0.00000000E+00  0.00000000E+00  0.00000000E+00
  0.00000000E+00  0.00000000E+00  0.00000000E+00
  0.00000000E+00  0.00000000E+00  0.00000000E+00
  0.00000000E+00  0.00000000E+00  0.00000000E+00
  0.00000000E+00  0.00000000E+00  0.00000000E+00
  0.00000000E+00  0.00000000E+00  0.00000000E+00
  0.00000000E+00  0.00000000E+00  0.00000000E+00
  0.00000000E+00  0.00000000E+00  0.00000000E+00
  0.00000000E+00  0.00000000E+00  0.00000000E+00
  0.00000000E+00  0.00000000E+00  0.00000000E+00
  0.00000000E+00  0.00000000E+00  0.00000000E+00
  0.00000000E+00  0.00000000E+00  0.00000000E+00
  0.00000000E+00  0.00000000E+00  0.00000000E+00
  0.00000000E+00  0.00000000E+00  0.00000000E+00
  0.00000000E+00  0.00000000E+00  0.00000000E+00
  0.00000000E+00  0.00000000E+00  0.00000000E+00
  0.00000000E+00  0.00000000E+00  0.00000000E+00
  0.00000000E+00  0.00000000E+00  0.00000000E+00
  0.00000000E+00  0.00000000E+00  0.00000000E+00
  0.00000000E+00  0.00000000E+00  0.00000000E+00
  0.00000000E+00  0.00000000E+00  0.00000000E+00
  0.00000000E+00  0.00000000E+00  0.00000000E+00
  0.00000000E+00  0.00000000E+00  0.00000000E+00
  0.00000000E+00  0.00000000E+00  0.00000000E+00
  0.00000000E+00  0.00000000E+00  0.00000000E+00
  0.00000000E+00  0.00000000E+00  0.00000000E+00
  0.00000000E+00  0.00000000E+00  0.00000000E+00
  0.00000000E+00  0.00000000E+00  0.00000000E+00
  0.00000000E+00  0.00000000E+00  0.00000000E+00
  0.00000000E+00  0.00000000E+00  0.00000000E+00
  0.00000000E+00  0.00000000E+00  0.00000000E+00
  0.00000000E+00  0.00000000E+00  0.00000000E+00
  0.00000000E+00  0.00000000E+00  0.00000000E+00
  0.00000000E+00  0.00000000E+00  0.00000000E+00
  0.00000000E+00  0.00000000E+00  0.00000000E+00
  0.00000000E+00  0.00000000E+00  0.00000000E+00
  0.00000000E+00  0.00000000E+00  0.00000000E+00
  0.00000000E+00  0.00000000E+00  0.00000000E+00
  0.00000000E+00  0.00000000E+00  0.00000000E+00
  0.00000000E+00  0.00000000E+00  0.00000000E+00
  0.00000000E+00  0.00000000E+00  0.00000000E+00
  0.00000000E+00  0.00000000E+00  0.00000000E+00
