C F O                                   
   1.00000000000000     
    20.0000000000000000    0.0000000000000000    0.0000000000000000
     0.0000000000000000   20.0000000000000000    0.0000000000000000
     0.0000000000000000    0.0000000000000000   20.0000000000000000
   C    F    O 
     3     5     2
Selective dynamics
Direct
  0.5106418488959648  0.4769165673131894  0.5516980990053142   T   T   T
  0.4895196936490507  0.4772082473633077  0.4774086566747044   T   T   T
  0.5128525002757769  0.5388465415353423  0.4389189648990595   T   T   T
  0.5773651291001300  0.4800817196748000  0.5564316116290158   T   T   T
  0.4894263018612648  0.4206587293191575  0.5809092563856026   T   T   T
  0.4838787390185928  0.5293864753611004  0.5835042020630254   T   T   T
  0.5157840437579750  0.4220974012313832  0.4483156907888031   T   T   T
  0.4220445216203998  0.4743562221870192  0.4747613290441564   T   T   T
  0.5693982894578298  0.5431088069518353  0.4127436776976339   T   T   T
  0.4767889323630286  0.5894436039018416  0.4316375945357152   T   T   T
 
  0.00000000E+00  0.00000000E+00  0.00000000E+00
  0.00000000E+00  0.00000000E+00  0.00000000E+00
  0.00000000E+00  0.00000000E+00  0.00000000E+00
  0.00000000E+00  0.00000000E+00  0.00000000E+00
  0.00000000E+00  0.00000000E+00  0.00000000E+00
  0.00000000E+00  0.00000000E+00  0.00000000E+00
  0.00000000E+00  0.00000000E+00  0.00000000E+00
  0.00000000E+00  0.00000000E+00  0.00000000E+00
  0.00000000E+00  0.00000000E+00  0.00000000E+00
  0.00000000E+00  0.00000000E+00  0.00000000E+00
