C F O                                   
   1.00000000000000     
    20.0000000000000000    0.0000000000000000    0.0000000000000000
     0.0000000000000000   20.0000000000000000    0.0000000000000000
     0.0000000000000000    0.0000000000000000   20.0000000000000000
   C    F    O 
     3     5     2
Selective dynamics
Direct
  0.5107406598777757  0.4777609157971838  0.5498472133755996   T   T   T
  0.4900758097742397  0.4788623053885885  0.4760127924727229   T   T   T
  0.5140799501462965  0.5423690546489510  0.4373793108741282   T   T   T
  0.5775962363837976  0.4793206031097270  0.5563801596210993   T   T   T
  0.4883865780972982  0.4220407620584083  0.5805409479923895   T   T   T
  0.4851092038143037  0.5307881475181802  0.5823813081500830   T   T   T
  0.5150675439770822  0.4214233766347917  0.4481171739449294   T   T   T
  0.4218398165284682  0.4725540334779978  0.4753230528326142   T   T   T
  0.5721906195778530  0.5382682623530428  0.4153831139478825   T   T   T
  0.4726135818228627  0.5887168538521053  0.4349640095115817   T   T   T
 
  0.00000000E+00  0.00000000E+00  0.00000000E+00
  0.00000000E+00  0.00000000E+00  0.00000000E+00
  0.00000000E+00  0.00000000E+00  0.00000000E+00
  0.00000000E+00  0.00000000E+00  0.00000000E+00
  0.00000000E+00  0.00000000E+00  0.00000000E+00
  0.00000000E+00  0.00000000E+00  0.00000000E+00
  0.00000000E+00  0.00000000E+00  0.00000000E+00
  0.00000000E+00  0.00000000E+00  0.00000000E+00
  0.00000000E+00  0.00000000E+00  0.00000000E+00
  0.00000000E+00  0.00000000E+00  0.00000000E+00
