B N                                     
   1.00000000000000     
     5.0243667044670000   -8.7024973729579997    0.0000000000000000
     5.0243667044670000    8.7024973729579997    0.0000000000000000
     0.0000000000000000    0.0000000000000000   35.1146643855649998
   B    N 
    15    16
Selective dynamics
Direct
  0.1667984412803260  0.0835354596466451  0.5000000000000000   T   T   T
  0.1665500125275595  0.3338419927331465  0.5000000000000000   T   T   T
  0.1665539432562509  0.5826405295153056  0.5000000000000000   T   T   T
  0.1667993565738209  0.8332016418371828  0.5000000000000000   T   T   T
  0.4166128758856939  0.0832777340476049  0.5000000000000000   T   T   T
  0.4173544655631893  0.3338489959685567  0.5000000000000000   T   T   T
  0.4173604688956982  0.8334470551547526  0.5000000000000000   T   T   T
  0.6667353355490537  0.0834162674235318  0.5000000000000000   T   T   T
  0.6667331203758061  0.3332678780351905  0.5000000000000000   T   T   T
  0.6661520024424397  0.5826465328478002  0.5000000000000000   T   T   T
  0.6661590056778501  0.8334509858834370  0.5000000000000000   T   T   T
  0.9167208320187265  0.0832801663922702  0.5000000000000000   T   T   T
  0.9165847309874647  0.3332656628619428  0.5000000000000000   T   T   T
  0.9167232643633987  0.5833881225253098  0.5000000000000000   T   T   T
  0.9164655387643513  0.8332025571306706  0.5000000000000000   T   T   T
  0.0827633775007549  0.1658790324488020  0.5000000000000000   T   T   T
  0.0822627930542287  0.4160981710102517  0.5000000000000000   T   T   T
  0.0827686510525033  0.6668228039633525  0.5000000000000000   T   T   T
  0.0833543647844209  0.9166466336265756  0.5000000000000000   T   T   T
  0.3331739880561099  0.1658813091209653  0.5000000000000000   T   T   T
  0.3280679308910527  0.4060807847419330  0.5000000000000000   T   T   T
  0.3280777968567606  0.6719232015542359  0.5000000000000000   T   T   T
  0.3331781944476440  0.9172323473585000  0.5000000000000000   T   T   T
  0.5832768589016799  0.1666111486042096  0.5000000000000000   T   T   T
  0.5939202136690637  0.6719330675199439  0.5000000000000000   T   T   T
  0.5839028274007447  0.9177382053567679  0.5000000000000000   T   T   T
  0.8333895439096389  0.1666114545013577  0.5000000000000000   T   T   T
  0.8333898498067941  0.4167241395093169  0.5000000000000000   T   T   T
  0.8341196892900382  0.6668270103548866  0.5000000000000000   T   T   T
  0.8341219659621945  0.9172376209102416  0.5000000000000000   T   T   T
  0.5838959673257063  0.4161050310852903  0.5000000000000000   T   T   T
 
  0.00000000E+00  0.00000000E+00  0.00000000E+00
  0.00000000E+00  0.00000000E+00  0.00000000E+00
  0.00000000E+00  0.00000000E+00  0.00000000E+00
  0.00000000E+00  0.00000000E+00  0.00000000E+00
  0.00000000E+00  0.00000000E+00  0.00000000E+00
  0.00000000E+00  0.00000000E+00  0.00000000E+00
  0.00000000E+00  0.00000000E+00  0.00000000E+00
  0.00000000E+00  0.00000000E+00  0.00000000E+00
  0.00000000E+00  0.00000000E+00  0.00000000E+00
  0.00000000E+00  0.00000000E+00  0.00000000E+00
  0.00000000E+00  0.00000000E+00  0.00000000E+00
  0.00000000E+00  0.00000000E+00  0.00000000E+00
  0.00000000E+00  0.00000000E+00  0.00000000E+00
  0.00000000E+00  0.00000000E+00  0.00000000E+00
  0.00000000E+00  0.00000000E+00  0.00000000E+00
  0.00000000E+00  0.00000000E+00  0.00000000E+00
  0.00000000E+00  0.00000000E+00  0.00000000E+00
  0.00000000E+00  0.00000000E+00  0.00000000E+00
  0.00000000E+00  0.00000000E+00  0.00000000E+00
  0.00000000E+00  0.00000000E+00  0.00000000E+00
  0.00000000E+00  0.00000000E+00  0.00000000E+00
  0.00000000E+00  0.00000000E+00  0.00000000E+00
  0.00000000E+00  0.00000000E+00  0.00000000E+00
  0.00000000E+00  0.00000000E+00  0.00000000E+00
  0.00000000E+00  0.00000000E+00  0.00000000E+00
  0.00000000E+00  0.00000000E+00  0.00000000E+00
  0.00000000E+00  0.00000000E+00  0.00000000E+00
  0.00000000E+00  0.00000000E+00  0.00000000E+00
  0.00000000E+00  0.00000000E+00  0.00000000E+00
  0.00000000E+00  0.00000000E+00  0.00000000E+00
  0.00000000E+00  0.00000000E+00  0.00000000E+00
