B N C F O                               
   1.00000000000000     
     7.5365500567000003  -13.0537460594369996    0.0000000000000000
     7.5365500567000003   13.0537460594369996    0.0000000000000000
     0.0000000000000000    0.0000000000000000   35.1146643855649998
   B    N    C    F    O 
    36    36     3     5     2
Selective dynamics
Direct
  0.1111098589326548  0.0556206490393105  0.5003528221287078   T   T   T
  0.1111014485085921  0.2222822707502735  0.5003771666033086   T   T   T
  0.1111077973728829  0.3889581943273243  0.5003403676550807   T   T   T
  0.1111134093194791  0.5556358293518969  0.5002976090733615   T   T   T
  0.1111221210686515  0.7223061077106783  0.5002669733307571   T   T   T
  0.1111195480831367  0.8889665090034453  0.5003039409712853   T   T   T
  0.2777903539744707  0.0556222767827162  0.5004018939611139   T   T   T
  0.2777779347032319  0.2222783671276677  0.5004495720872955   T   T   T
  0.2777855610532497  0.3889538878577098  0.5004042502675059   T   T   T
  0.2777873315143491  0.5556586417136778  0.5002423604394114   T   T   T
  0.2777991333020355  0.7223196649466926  0.5002872253163684   T   T   T
  0.2777974402675109  0.8889736912134715  0.5002985214358441   T   T   T
  0.4444715640645663  0.0556284283686361  0.5003704401819592   T   T   T
  0.4444731901541603  0.2222850224261162  0.5004714046354845   T   T   T
  0.4444800239833924  0.3889723230632433  0.5005028017329292   T   T   T
  0.4444845167120808  0.5556564886400210  0.5003637527640551   T   T   T
  0.4444720011416231  0.7223166545875966  0.5003055404913095   T   T   T
  0.4444713154563701  0.8889778358294398  0.5002958009203292   T   T   T
  0.6111356168873269  0.0556362149165231  0.5003027303638464   T   T   T
  0.6111346637306632  0.2222935661300587  0.5003628996295597   T   T   T
  0.6111378088546374  0.3889656732180725  0.5004051861935055   T   T   T
  0.6111353640720799  0.5556404872308935  0.5003672584478626   T   T   T
  0.6111305817422175  0.7223094568927398  0.5003254896704193   T   T   T
  0.6111314586359292  0.8889727306005878  0.5003088300223034   T   T   T
  0.7777905201122629  0.0556346418988331  0.5002915193968950   T   T   T
  0.7777939183064473  0.2223013594825295  0.5002872332440167   T   T   T
  0.7777933094847315  0.3889672140963690  0.5003092104483046   T   T   T
  0.7777912122624466  0.5556365377197943  0.5002987326524500   T   T   T
  0.7777901960785725  0.7223049552260818  0.5002876475951455   T   T   T
  0.7777875580550003  0.8889698032697056  0.5002864488412522   T   T   T
  0.9444453482316789  0.0556294521659711  0.5002999409723621   T   T   T
  0.9444480970936260  0.2222961907239570  0.5003144361503781   T   T   T
  0.9444509012865883  0.3889656037010867  0.5002999184233595   T   T   T
  0.9444543776766920  0.5556368501423959  0.5002749196001519   T   T   T
  0.9444531738172625  0.7223052708568670  0.5002687360817784   T   T   T
  0.9444491394748268  0.8889670526918123  0.5002906568062804   T   T   T
  0.0555755416751778  0.1111924827531018  0.5003294836080211   T   T   T
  0.0555799593740926  0.2778611830078132  0.5003482136839338   T   T   T
  0.0555782395160505  0.4445300437653492  0.5003129263421450   T   T   T
  0.0555738525316031  0.6111962881244936  0.5002705720563300   T   T   T
  0.0555720147483730  0.7778628659957378  0.5002637215107788   T   T   T
  0.0555731780549782  0.9445255497240904  0.5003162674458426   T   T   T
  0.2222355559655653  0.1111857897624750  0.5004119715269065   T   T   T
  0.2222353865174827  0.2778512089918350  0.5004562349339197   T   T   T
  0.2222473550333206  0.4445312571488837  0.5003464933751827   T   T   T
  0.2222314837676480  0.6111998459385170  0.5002898850555857   T   T   T
  0.2222371082994585  0.7778620396203445  0.5002746852266104   T   T   T
  0.2222361756890207  0.9445253409501132  0.5003236178196501   T   T   T
  0.3889024981319128  0.1111855001505379  0.5004537462638181   T   T   T
  0.3888950287664709  0.2778479961213161  0.5005644985307585   T   T   T
  0.3888985863738443  0.4445193604760494  0.5005049627054153   T   T   T
  0.3888905235758243  0.6111814632280563  0.5002978472642234   T   T   T
  0.3888992137987771  0.7778587369714036  0.5002924535753142   T   T   T
  0.3889020832592207  0.9445258024399932  0.5003022827236316   T   T   T
  0.5555685942725470  0.1111895990918179  0.5003415220904903   T   T   T
  0.5555667306600619  0.2778505304338694  0.5004375138008009   T   T   T
  0.5555660639717654  0.4445178981276535  0.5004364457712104   T   T   T
  0.5555667640044277  0.6111836144161515  0.5003630083752247   T   T   T
  0.5555656019574357  0.7778558472818633  0.5003181638714504   T   T   T
  0.5555688318175599  0.9445245858745657  0.5002970160645078   T   T   T
  0.7222401497151673  0.1111959860975391  0.5002769018022055   T   T   T
  0.7222367138257980  0.2778590087010600  0.5003029753374384   T   T   T
  0.7222352785971454  0.4445226170083373  0.5003314250650970   T   T   T
  0.7222329353471960  0.6111874338265813  0.5003004457563309   T   T   T
  0.7222345979985438  0.7778565592140041  0.5002870016588437   T   T   T
  0.7222363795614705  0.9445258739538945  0.5002975980728348   T   T   T
  0.8889104030049567  0.1111968990298522  0.5002974530580526   T   T   T
  0.8889112811715231  0.2778651953390638  0.5002904569756220   T   T   T
  0.8889089584339718  0.4445304773826520  0.5002859830163962   T   T   T
  0.8889063089170918  0.6111958562064639  0.5002633421905071   T   T   T
  0.8889069789968800  0.7778614551987687  0.5002775483786723   T   T   T
  0.8889066596633185  0.9445269981584441  0.5002745716355628   T   T   T
  0.3769698781954909  0.2983456886406565  0.6585782851003027   T   T   T
  0.3622388340475715  0.2664964628729417  0.6173286073817607   T   T   T
  0.3144028618300665  0.5226460397346857  0.6092743712950554   T   T   T
  0.4668513519019784  0.3850400081806742  0.6631479171572142   T   T   T
  0.3770411101372861  0.2264400268787542  0.6816453156391210   T   T   T
  0.3009459606354316  0.3139215139134953  0.6700515578908894   T   T   T
  0.4383689130669598  0.2573952037323460  0.6026319158604710   T   T   T
  0.2715376085552249  0.1857967630534872  0.6095900557981845   T   T   T
  0.4021742434242863  0.5776012058834260  0.6059063571598533   T   T   T
  0.2266258210314756  0.4674158357866041  0.6124348564138992   T   T   T
 
  0.00000000E+00  0.00000000E+00  0.00000000E+00
  0.00000000E+00  0.00000000E+00  0.00000000E+00
  0.00000000E+00  0.00000000E+00  0.00000000E+00
  0.00000000E+00  0.00000000E+00  0.00000000E+00
  0.00000000E+00  0.00000000E+00  0.00000000E+00
  0.00000000E+00  0.00000000E+00  0.00000000E+00
  0.00000000E+00  0.00000000E+00  0.00000000E+00
  0.00000000E+00  0.00000000E+00  0.00000000E+00
  0.00000000E+00  0.00000000E+00  0.00000000E+00
  0.00000000E+00  0.00000000E+00  0.00000000E+00
  0.00000000E+00  0.00000000E+00  0.00000000E+00
  0.00000000E+00  0.00000000E+00  0.00000000E+00
  0.00000000E+00  0.00000000E+00  0.00000000E+00
  0.00000000E+00  0.00000000E+00  0.00000000E+00
  0.00000000E+00  0.00000000E+00  0.00000000E+00
  0.00000000E+00  0.00000000E+00  0.00000000E+00
  0.00000000E+00  0.00000000E+00  0.00000000E+00
  0.00000000E+00  0.00000000E+00  0.00000000E+00
  0.00000000E+00  0.00000000E+00  0.00000000E+00
  0.00000000E+00  0.00000000E+00  0.00000000E+00
  0.00000000E+00  0.00000000E+00  0.00000000E+00
  0.00000000E+00  0.00000000E+00  0.00000000E+00
  0.00000000E+00  0.00000000E+00  0.00000000E+00
  0.00000000E+00  0.00000000E+00  0.00000000E+00
  0.00000000E+00  0.00000000E+00  0.00000000E+00
  0.00000000E+00  0.00000000E+00  0.00000000E+00
  0.00000000E+00  0.00000000E+00  0.00000000E+00
  0.00000000E+00  0.00000000E+00  0.00000000E+00
  0.00000000E+00  0.00000000E+00  0.00000000E+00
  0.00000000E+00  0.00000000E+00  0.00000000E+00
  0.00000000E+00  0.00000000E+00  0.00000000E+00
  0.00000000E+00  0.00000000E+00  0.00000000E+00
  0.00000000E+00  0.00000000E+00  0.00000000E+00
  0.00000000E+00  0.00000000E+00  0.00000000E+00
  0.00000000E+00  0.00000000E+00  0.00000000E+00
  0.00000000E+00  0.00000000E+00  0.00000000E+00
  0.00000000E+00  0.00000000E+00  0.00000000E+00
  0.00000000E+00  0.00000000E+00  0.00000000E+00
  0.00000000E+00  0.00000000E+00  0.00000000E+00
  0.00000000E+00  0.00000000E+00  0.00000000E+00
  0.00000000E+00  0.00000000E+00  0.00000000E+00
  0.00000000E+00  0.00000000E+00  0.00000000E+00
  0.00000000E+00  0.00000000E+00  0.00000000E+00
  0.00000000E+00  0.00000000E+00  0.00000000E+00
  0.00000000E+00  0.00000000E+00  0.00000000E+00
  0.00000000E+00  0.00000000E+00  0.00000000E+00
  0.00000000E+00  0.00000000E+00  0.00000000E+00
  0.00000000E+00  0.00000000E+00  0.00000000E+00
  0.00000000E+00  0.00000000E+00  0.00000000E+00
  0.00000000E+00  0.00000000E+00  0.00000000E+00
  0.00000000E+00  0.00000000E+00  0.00000000E+00
  0.00000000E+00  0.00000000E+00  0.00000000E+00
  0.00000000E+00  0.00000000E+00  0.00000000E+00
  0.00000000E+00  0.00000000E+00  0.00000000E+00
  0.00000000E+00  0.00000000E+00  0.00000000E+00
  0.00000000E+00  0.00000000E+00  0.00000000E+00
  0.00000000E+00  0.00000000E+00  0.00000000E+00
  0.00000000E+00  0.00000000E+00  0.00000000E+00
  0.00000000E+00  0.00000000E+00  0.00000000E+00
  0.00000000E+00  0.00000000E+00  0.00000000E+00
  0.00000000E+00  0.00000000E+00  0.00000000E+00
  0.00000000E+00  0.00000000E+00  0.00000000E+00
  0.00000000E+00  0.00000000E+00  0.00000000E+00
  0.00000000E+00  0.00000000E+00  0.00000000E+00
  0.00000000E+00  0.00000000E+00  0.00000000E+00
  0.00000000E+00  0.00000000E+00  0.00000000E+00
  0.00000000E+00  0.00000000E+00  0.00000000E+00
  0.00000000E+00  0.00000000E+00  0.00000000E+00
  0.00000000E+00  0.00000000E+00  0.00000000E+00
  0.00000000E+00  0.00000000E+00  0.00000000E+00
  0.00000000E+00  0.00000000E+00  0.00000000E+00
  0.00000000E+00  0.00000000E+00  0.00000000E+00
  0.00000000E+00  0.00000000E+00  0.00000000E+00
  0.00000000E+00  0.00000000E+00  0.00000000E+00
  0.00000000E+00  0.00000000E+00  0.00000000E+00
  0.00000000E+00  0.00000000E+00  0.00000000E+00
  0.00000000E+00  0.00000000E+00  0.00000000E+00
  0.00000000E+00  0.00000000E+00  0.00000000E+00
  0.00000000E+00  0.00000000E+00  0.00000000E+00
  0.00000000E+00  0.00000000E+00  0.00000000E+00
  0.00000000E+00  0.00000000E+00  0.00000000E+00
  0.00000000E+00  0.00000000E+00  0.00000000E+00
