B N C F O                               
   1.00000000000000     
     7.5365500567000003  -13.0537460594369996    0.0000000000000000
     7.5365500567000003   13.0537460594369996    0.0000000000000000
     0.0000000000000000    0.0000000000000000   35.1146643855649998
   B    N    C    F    O 
    36    36     3     5     2
Selective dynamics
Direct
  0.1111141299566167  0.0556234987834182  0.5003529457435871   T   T   T
  0.1111067800887616  0.2222843104226888  0.5003783583767092   T   T   T
  0.1111063646975397  0.3889579249526602  0.5003421355515444   T   T   T
  0.1111154499745293  0.5556369571514704  0.5003003980373193   T   T   T
  0.1111250523861944  0.7223084174451548  0.5002651075574512   T   T   T
  0.1111251421475759  0.8889685539178950  0.5003041752543630   T   T   T
  0.2777883569882622  0.0556177733756542  0.5004042877986795   T   T   T
  0.2777715043731224  0.2222760619742723  0.5004528990500816   T   T   T
  0.2777821632904569  0.3889477389548734  0.5004109874177465   T   T   T
  0.2777774998680997  0.5556571750422026  0.5002466613203106   T   T   T
  0.2777935047333012  0.7223208411232923  0.5002907493916505   T   T   T
  0.2777924173166617  0.8889741484133220  0.5002963585204786   T   T   T
  0.4444660503597865  0.0556269622986283  0.5003711156360033   T   T   T
  0.4444709605978792  0.2222810673736813  0.5004741742720397   T   T   T
  0.4444782380238790  0.3889698047768114  0.5005062482904559   T   T   T
  0.4444781264575076  0.5556496365118117  0.5003697578214779   T   T   T
  0.4444660363503770  0.7223244125054263  0.5003073878471190   T   T   T
  0.4444620452414091  0.8889730485559764  0.5002943047842628   T   T   T
  0.6111306271465545  0.0556376434257707  0.5003018650644601   T   T   T
  0.6111306497254722  0.2222917667724284  0.5003627642720272   T   T   T
  0.6111335794757011  0.3889636427515192  0.5004062029422979   T   T   T
  0.6111335125202211  0.5556360196624344  0.5003670380055795   T   T   T
  0.6111289438660933  0.7223053281180476  0.5003263591483392   T   T   T
  0.6111262003510443  0.8889728112994300  0.5003099694395979   T   T   T
  0.7777954383992968  0.0556388832528401  0.5002914168962447   T   T   T
  0.7777987836702287  0.2223071345476567  0.5002860024887055   T   T   T
  0.7777962469023243  0.3889703224540317  0.5003093797205797   T   T   T
  0.7777966275218393  0.5556354482170381  0.5002976105564181   T   T   T
  0.7777958661313733  0.7223050156323094  0.5002875014320520   T   T   T
  0.7777938144455649  0.8889697337162173  0.5002849638532206   T   T   T
  0.9444568739714647  0.0556347073967410  0.5002992938555249   T   T   T
  0.9444588423534052  0.2223045740800735  0.5003150294507727   T   T   T
  0.9444586220061700  0.3889711965181348  0.5002989161118241   T   T   T
  0.9444592514762633  0.5556422010269065  0.5002741534884768   T   T   T
  0.9444611531140253  0.7223058398991004  0.5002680734949816   T   T   T
  0.9444581393536149  0.8889694663787512  0.5002904481490089   T   T   T
  0.0555621883870503  0.1111816296163489  0.5003261150636668   T   T   T
  0.0555707152320126  0.2778577024666039  0.5003470998131226   T   T   T
  0.0555733786614203  0.4445223573666108  0.5003116340806719   T   T   T
  0.0555661245770215  0.6111951643543467  0.5002691026580884   T   T   T
  0.0555663052320157  0.7778587696223582  0.5002629083681573   T   T   T
  0.0555631478382021  0.9445215534068528  0.5003180787901728   T   T   T
  0.2222418067056685  0.1111910622844686  0.5004056704984190   T   T   T
  0.2222412342348846  0.2778519672795667  0.5004549058823485   T   T   T
  0.2222563361172257  0.4445413214192482  0.5003373769240078   T   T   T
  0.2222407650704411  0.6111970485769493  0.5002930967517009   T   T   T
  0.2222376855568503  0.7778673039368247  0.5002741134084014   T   T   T
  0.2222367469272515  0.9445246309772333  0.5003220452243333   T   T   T
  0.3889070733316631  0.1111948777278119  0.5004524634963337   T   T   T
  0.3888992885195405  0.2778439204184009  0.5005549315360650   T   T   T
  0.3889015291839216  0.4445277539162255  0.5005013007491901   T   T   T
  0.3888918659007002  0.6111807279471178  0.5002900658564262   T   T   T
  0.3889091644942384  0.7778579299654658  0.5002908841826231   T   T   T
  0.3889088923742025  0.9445239616901693  0.5003000244036973   T   T   T
  0.5555765737655123  0.1111885115562970  0.5003416437237238   T   T   T
  0.5555641651740922  0.2778501082012124  0.5004339293326492   T   T   T
  0.5555664540371551  0.4445144502713261  0.5004305511569724   T   T   T
  0.5555630364808732  0.6111903675351748  0.5003617474144589   T   T   T
  0.5555660846898434  0.7778534290995647  0.5003171741140608   T   T   T
  0.5555759951980181  0.9445279502330919  0.5002975858301321   T   T   T
  0.7222419307421498  0.1111931828079588  0.5002748197307761   T   T   T
  0.7222402081213209  0.2778574835409483  0.5003012114376129   T   T   T
  0.7222378432656775  0.4445227728749779  0.5003320072946341   T   T   T
  0.7222386619357796  0.6111929404170203  0.5002986369943807   T   T   T
  0.7222349835423110  0.7778575177538339  0.5002852598345877   T   T   T
  0.7222374030902404  0.9445250796084613  0.5002997394863286   T   T   T
  0.8889006200393914  0.1111920070249537  0.5002984433976134   T   T   T
  0.8889037765834980  0.2778582507560282  0.5002905042511346   T   T   T
  0.8889032273872111  0.4445256614623623  0.5002866891692822   T   T   T
  0.8888994219219045  0.6111925442872905  0.5002623400308900   T   T   T
  0.8888974423709084  0.7778580854631371  0.5002790863843195   T   T   T
  0.8888967080471172  0.9445242205533881  0.5002726992760556   T   T   T
  0.3769719549561105  0.2983578329916091  0.6585821426342316   T   T   T
  0.3622243699854070  0.2665115444708743  0.6173237795465891   T   T   T
  0.3144039647525206  0.5226379363424094  0.6092699906719785   T   T   T
  0.4668667836977359  0.3850335018562530  0.6631512932621191   T   T   T
  0.3770504319457848  0.2264525914634182  0.6816515292545304   T   T   T
  0.3009299360120148  0.3138986955705746  0.6700568737004424   T   T   T
  0.4383695657658615  0.2574041237821993  0.6026423469077294   T   T   T
  0.2715503614844846  0.1858195357732352  0.6096014489162620   T   T   T
  0.4021575794922814  0.5775846101022620  0.6059141035659702   T   T   T
  0.2266306671247762  0.4674091553928383  0.6124282787537695   T   T   T
 
  0.00000000E+00  0.00000000E+00  0.00000000E+00
  0.00000000E+00  0.00000000E+00  0.00000000E+00
  0.00000000E+00  0.00000000E+00  0.00000000E+00
  0.00000000E+00  0.00000000E+00  0.00000000E+00
  0.00000000E+00  0.00000000E+00  0.00000000E+00
  0.00000000E+00  0.00000000E+00  0.00000000E+00
  0.00000000E+00  0.00000000E+00  0.00000000E+00
  0.00000000E+00  0.00000000E+00  0.00000000E+00
  0.00000000E+00  0.00000000E+00  0.00000000E+00
  0.00000000E+00  0.00000000E+00  0.00000000E+00
  0.00000000E+00  0.00000000E+00  0.00000000E+00
  0.00000000E+00  0.00000000E+00  0.00000000E+00
  0.00000000E+00  0.00000000E+00  0.00000000E+00
  0.00000000E+00  0.00000000E+00  0.00000000E+00
  0.00000000E+00  0.00000000E+00  0.00000000E+00
  0.00000000E+00  0.00000000E+00  0.00000000E+00
  0.00000000E+00  0.00000000E+00  0.00000000E+00
  0.00000000E+00  0.00000000E+00  0.00000000E+00
  0.00000000E+00  0.00000000E+00  0.00000000E+00
  0.00000000E+00  0.00000000E+00  0.00000000E+00
  0.00000000E+00  0.00000000E+00  0.00000000E+00
  0.00000000E+00  0.00000000E+00  0.00000000E+00
  0.00000000E+00  0.00000000E+00  0.00000000E+00
  0.00000000E+00  0.00000000E+00  0.00000000E+00
  0.00000000E+00  0.00000000E+00  0.00000000E+00
  0.00000000E+00  0.00000000E+00  0.00000000E+00
  0.00000000E+00  0.00000000E+00  0.00000000E+00
  0.00000000E+00  0.00000000E+00  0.00000000E+00
  0.00000000E+00  0.00000000E+00  0.00000000E+00
  0.00000000E+00  0.00000000E+00  0.00000000E+00
  0.00000000E+00  0.00000000E+00  0.00000000E+00
  0.00000000E+00  0.00000000E+00  0.00000000E+00
  0.00000000E+00  0.00000000E+00  0.00000000E+00
  0.00000000E+00  0.00000000E+00  0.00000000E+00
  0.00000000E+00  0.00000000E+00  0.00000000E+00
  0.00000000E+00  0.00000000E+00  0.00000000E+00
  0.00000000E+00  0.00000000E+00  0.00000000E+00
  0.00000000E+00  0.00000000E+00  0.00000000E+00
  0.00000000E+00  0.00000000E+00  0.00000000E+00
  0.00000000E+00  0.00000000E+00  0.00000000E+00
  0.00000000E+00  0.00000000E+00  0.00000000E+00
  0.00000000E+00  0.00000000E+00  0.00000000E+00
  0.00000000E+00  0.00000000E+00  0.00000000E+00
  0.00000000E+00  0.00000000E+00  0.00000000E+00
  0.00000000E+00  0.00000000E+00  0.00000000E+00
  0.00000000E+00  0.00000000E+00  0.00000000E+00
  0.00000000E+00  0.00000000E+00  0.00000000E+00
  0.00000000E+00  0.00000000E+00  0.00000000E+00
  0.00000000E+00  0.00000000E+00  0.00000000E+00
  0.00000000E+00  0.00000000E+00  0.00000000E+00
  0.00000000E+00  0.00000000E+00  0.00000000E+00
  0.00000000E+00  0.00000000E+00  0.00000000E+00
  0.00000000E+00  0.00000000E+00  0.00000000E+00
  0.00000000E+00  0.00000000E+00  0.00000000E+00
  0.00000000E+00  0.00000000E+00  0.00000000E+00
  0.00000000E+00  0.00000000E+00  0.00000000E+00
  0.00000000E+00  0.00000000E+00  0.00000000E+00
  0.00000000E+00  0.00000000E+00  0.00000000E+00
  0.00000000E+00  0.00000000E+00  0.00000000E+00
  0.00000000E+00  0.00000000E+00  0.00000000E+00
  0.00000000E+00  0.00000000E+00  0.00000000E+00
  0.00000000E+00  0.00000000E+00  0.00000000E+00
  0.00000000E+00  0.00000000E+00  0.00000000E+00
  0.00000000E+00  0.00000000E+00  0.00000000E+00
  0.00000000E+00  0.00000000E+00  0.00000000E+00
  0.00000000E+00  0.00000000E+00  0.00000000E+00
  0.00000000E+00  0.00000000E+00  0.00000000E+00
  0.00000000E+00  0.00000000E+00  0.00000000E+00
  0.00000000E+00  0.00000000E+00  0.00000000E+00
  0.00000000E+00  0.00000000E+00  0.00000000E+00
  0.00000000E+00  0.00000000E+00  0.00000000E+00
  0.00000000E+00  0.00000000E+00  0.00000000E+00
  0.00000000E+00  0.00000000E+00  0.00000000E+00
  0.00000000E+00  0.00000000E+00  0.00000000E+00
  0.00000000E+00  0.00000000E+00  0.00000000E+00
  0.00000000E+00  0.00000000E+00  0.00000000E+00
  0.00000000E+00  0.00000000E+00  0.00000000E+00
  0.00000000E+00  0.00000000E+00  0.00000000E+00
  0.00000000E+00  0.00000000E+00  0.00000000E+00
  0.00000000E+00  0.00000000E+00  0.00000000E+00
  0.00000000E+00  0.00000000E+00  0.00000000E+00
  0.00000000E+00  0.00000000E+00  0.00000000E+00
