B N C F O                               
   1.00000000000000     
     5.0243667044670000   -8.7024973729579997    0.0000000000000000
     5.0243667044670000    8.7024973729579997    0.0000000000000000
     0.0000000000000000    0.0000000000000000   35.1146643855649998
   B    N    C    F    O 
    16    16     3     5     2
Selective dynamics
Direct
  0.1665531988599431  0.0834653026639534  0.5021195615659543   T   T   T
  0.1665421268630217  0.3334486212964724  0.5021597039043777   T   T   T
  0.1665610575284651  0.5834685668663834  0.5021390787886674   T   T   T
  0.1665617901851530  0.8334759642482535  0.5021110380659575   T   T   T
  0.4165798384476008  0.0834891902271685  0.5020902307892230   T   T   T
  0.4165456474471904  0.3334419973347786  0.5021376805385814   T   T   T
  0.4165713863659089  0.5834611448555509  0.5020942136857207   T   T   T
  0.4165851030707277  0.8335272143623017  0.5019333767776196   T   T   T
  0.6665948989093265  0.0834825520222849  0.5020860685208423   T   T   T
  0.6666086514229879  0.3334726431529740  0.5021796851497657   T   T   T
  0.6666097541787379  0.5834878012592634  0.5021964373362413   T   T   T
  0.6666017633590233  0.8335234746719784  0.5020750210354200   T   T   T
  0.9165793090640871  0.0834810530681880  0.5021288962871769   T   T   T
  0.9165750926585461  0.3334717628528206  0.5021465591352033   T   T   T
  0.9165746662615372  0.5834641583075719  0.5021589019203592   T   T   T
  0.9165751345388828  0.8334760289382557  0.5021398438472169   T   T   T
  0.0832387057285228  0.1668064024748822  0.5021528572942374   T   T   T
  0.0832513430754709  0.4168135473624432  0.5021693476434708   T   T   T
  0.0832457577430074  0.6668080631741320  0.5021425866286422   T   T   T
  0.0832346019037606  0.9168042975547605  0.5021398657050982   T   T   T
  0.3332372888226397  0.1668061469680661  0.5020891855832826   T   T   T
  0.3332419618366883  0.4168060970657664  0.5021559874438511   T   T   T
  0.3332830144488333  0.6668450115585155  0.5020670898859937   T   T   T
  0.3332460368734660  0.9168186804618499  0.5020352368977761   T   T   T
  0.5832491413704555  0.1668229899155032  0.5021612241014720   T   T   T
  0.5832286807468116  0.4168001791891558  0.5022374028079476   T   T   T
  0.5832413438313262  0.6668128834691720  0.5021881086341502   T   T   T
  0.5832146041413324  0.9168035015919088  0.5019539051758861   T   T   T
  0.8332401086705046  0.1668067921880555  0.5021122696889996   T   T   T
  0.8332341406713669  0.4168044337339487  0.5021603180508697   T   T   T
  0.8332306995702401  0.6667933903568685  0.5021611773167021   T   T   T
  0.8332325671958916  0.9168057386580727  0.5021155532100677   T   T   T
  0.5644929195059746  0.4472337772244965  0.6533905763005913   T   T   T
  0.5471797093024915  0.3980751098703109  0.6122715336681719   T   T   T
  0.4719422541115509  0.7874535685017324  0.6063663911781506   T   T   T
  0.6994506404201378  0.5765079709525160  0.6585838720376279   T   T   T
  0.5601088705604897  0.3394004895777475  0.6772955600279852   T   T   T
  0.4501773519275484  0.4727118940641167  0.6632695492031990   T   T   T
  0.6617831250326293  0.3815994502978011  0.5990816254369321   T   T   T
  0.4112720736920267  0.2782249991365884  0.6038037914240612   T   T   T
  0.6033803999129637  0.8677662051444803  0.6019243013980855   T   T   T
  0.3404343643786756  0.7066616994999032  0.6106171007104504   T   T   T
 
  0.00000000E+00  0.00000000E+00  0.00000000E+00
  0.00000000E+00  0.00000000E+00  0.00000000E+00
  0.00000000E+00  0.00000000E+00  0.00000000E+00
  0.00000000E+00  0.00000000E+00  0.00000000E+00
  0.00000000E+00  0.00000000E+00  0.00000000E+00
  0.00000000E+00  0.00000000E+00  0.00000000E+00
  0.00000000E+00  0.00000000E+00  0.00000000E+00
  0.00000000E+00  0.00000000E+00  0.00000000E+00
  0.00000000E+00  0.00000000E+00  0.00000000E+00
  0.00000000E+00  0.00000000E+00  0.00000000E+00
  0.00000000E+00  0.00000000E+00  0.00000000E+00
  0.00000000E+00  0.00000000E+00  0.00000000E+00
  0.00000000E+00  0.00000000E+00  0.00000000E+00
  0.00000000E+00  0.00000000E+00  0.00000000E+00
  0.00000000E+00  0.00000000E+00  0.00000000E+00
  0.00000000E+00  0.00000000E+00  0.00000000E+00
  0.00000000E+00  0.00000000E+00  0.00000000E+00
  0.00000000E+00  0.00000000E+00  0.00000000E+00
  0.00000000E+00  0.00000000E+00  0.00000000E+00
  0.00000000E+00  0.00000000E+00  0.00000000E+00
  0.00000000E+00  0.00000000E+00  0.00000000E+00
  0.00000000E+00  0.00000000E+00  0.00000000E+00
  0.00000000E+00  0.00000000E+00  0.00000000E+00
  0.00000000E+00  0.00000000E+00  0.00000000E+00
  0.00000000E+00  0.00000000E+00  0.00000000E+00
  0.00000000E+00  0.00000000E+00  0.00000000E+00
  0.00000000E+00  0.00000000E+00  0.00000000E+00
  0.00000000E+00  0.00000000E+00  0.00000000E+00
  0.00000000E+00  0.00000000E+00  0.00000000E+00
  0.00000000E+00  0.00000000E+00  0.00000000E+00
  0.00000000E+00  0.00000000E+00  0.00000000E+00
  0.00000000E+00  0.00000000E+00  0.00000000E+00
  0.00000000E+00  0.00000000E+00  0.00000000E+00
  0.00000000E+00  0.00000000E+00  0.00000000E+00
  0.00000000E+00  0.00000000E+00  0.00000000E+00
  0.00000000E+00  0.00000000E+00  0.00000000E+00
  0.00000000E+00  0.00000000E+00  0.00000000E+00
  0.00000000E+00  0.00000000E+00  0.00000000E+00
  0.00000000E+00  0.00000000E+00  0.00000000E+00
  0.00000000E+00  0.00000000E+00  0.00000000E+00
  0.00000000E+00  0.00000000E+00  0.00000000E+00
  0.00000000E+00  0.00000000E+00  0.00000000E+00
