B N C F O                               
   1.00000000000000     
     7.5365500567000003  -13.0537460594369996    0.0000000000000000
     7.5365500567000003   13.0537460594369996    0.0000000000000000
     0.0000000000000000    0.0000000000000000   35.1146643855649998
   B    N    C    F    O 
    36    36     6    11     2
Selective dynamics
Direct
  0.1140816778679392  0.0570576478340681  0.4951907824348714   T   T   T
  0.1140833781632842  0.2237381909153216  0.4952542374590279   T   T   T
  0.1141119333973436  0.3904156881136011  0.4950658732726523   T   T   T
  0.1141510480209214  0.5570734442341176  0.4947501675401507   T   T   T
  0.1140829780472937  0.7236965223569393  0.4949294028161568   T   T   T
  0.1140740917964399  0.8903723185761107  0.4950937515947327   T   T   T
  0.2807412581166198  0.0570460418112574  0.4951335230765875   T   T   T
  0.2807551946194218  0.2237576249778520  0.4951848446629074   T   T   T
  0.2807678258892010  0.3904643918130969  0.4949679776274969   T   T   T
  0.2807471517280899  0.5571174856826752  0.4947638635911826   T   T   T
  0.2807208847345414  0.7235983680023265  0.4947291445538824   T   T   T
  0.2807297263443269  0.8903345482522531  0.4950297914285934   T   T   T
  0.4473852704215350  0.0570173215950727  0.4949955462844051   T   T   T
  0.4474285649336135  0.2237509489024934  0.4948760930487532   T   T   T
  0.4474254308590373  0.3904640918829337  0.4946012577482810   T   T   T
  0.4474196280608300  0.5570949605105483  0.4940397957594967   T   T   T
  0.4473429647563749  0.7236295486792035  0.4946144466189636   T   T   T
  0.4473605167038201  0.8902855328781567  0.4949086069252326   T   T   T
  0.6140404911945110  0.0570016127890619  0.4950150465965287   T   T   T
  0.6140312025696565  0.2237231289135777  0.4948656274069269   T   T   T
  0.6140467766104397  0.3904071461810645  0.4944750644968818   T   T   T
  0.6140372157642663  0.5571017292328709  0.4938902291979707   T   T   T
  0.6140095015848951  0.7236297541156679  0.4940669335086457   T   T   T
  0.6140347255308183  0.8903073566888904  0.4948427481425142   T   T   T
  0.7807229185555299  0.0570182732693154  0.4950644059014586   T   T   T
  0.7807153763417238  0.2237037275870421  0.4951238364613046   T   T   T
  0.7807117723716011  0.3903956461307638  0.4949308372084502   T   T   T
  0.7807014416868716  0.5570581569482670  0.4946180948603719   T   T   T
  0.7807239245349084  0.7237036696204099  0.4945276928541814   T   T   T
  0.7807208693869498  0.8903550840046091  0.4948558384739029   T   T   T
  0.9474049175836213  0.0570454044042840  0.4951419091549608   T   T   T
  0.9474061484591809  0.2237142940517129  0.4951944505751021   T   T   T
  0.9474136957003728  0.3903896401998533  0.4950743490881454   T   T   T
  0.9474096576467360  0.5570476933488715  0.4949408145353494   T   T   T
  0.9474063918233960  0.7237186282634079  0.4949230362063380   T   T   T
  0.9474108768141303  0.8903795483052891  0.4950147978827527   T   T   T
  0.0585226359500576  0.1126078193630679  0.4951986224206927   T   T   T
  0.0585086668808302  0.2792648255826746  0.4952133461192682   T   T   T
  0.0584992441144059  0.4459224704364383  0.4949519587695217   T   T   T
  0.0585021260831499  0.6125925055060880  0.4948414028982353   T   T   T
  0.0585189138120872  0.7792714765197706  0.4950009853118453   T   T   T
  0.0585293231704036  0.9459441746603312  0.4951213338076432   T   T   T
  0.2251987713886623  0.1126207723957466  0.4952036419215818   T   T   T
  0.2251939991915842  0.2792942973961643  0.4952457499151235   T   T   T
  0.2251769108160177  0.4459435170377251  0.4949105617539361   T   T   T
  0.2251392605463576  0.6125811384503038  0.4943954675939143   T   T   T
  0.2251802903372521  0.7792488398265482  0.4949108092909639   T   T   T
  0.2251878352315083  0.9459334420235993  0.4951088937679025   T   T   T
  0.3918576483099094  0.1126125150606790  0.4950272160161939   T   T   T
  0.3918777780328636  0.2793170914448800  0.4949899863970517   T   T   T
  0.3918669874549805  0.4459701319726038  0.4944950437495796   T   T   T
  0.3918519401165108  0.6125837960227928  0.4943903515154462   T   T   T
  0.3918377821378174  0.7792437495387458  0.4946892789029534   T   T   T
  0.3918461163546071  0.9459199733529193  0.4949915939775756   T   T   T
  0.5585074445591982  0.1125961151813187  0.4949488914128027   T   T   T
  0.5585094298475426  0.2792819427227558  0.4945638469747781   T   T   T
  0.5585340137084666  0.4459771076518115  0.4942718413693815   T   T   T
  0.5585500225584825  0.6126167925304313  0.4932321412188627   T   T   T
  0.5585116677168158  0.7792360307123175  0.4945241711217088   T   T   T
  0.5585099272620562  0.9459085472307552  0.4949538183383169   T   T   T
  0.7251740287123218  0.1125881322844745  0.4950693249285179   T   T   T
  0.7251605902265021  0.2792750602092109  0.4950405232228424   T   T   T
  0.7251667442012291  0.4459490464309108  0.4946178966897735   T   T   T
  0.7251914558006893  0.6126274350785406  0.4942412993194744   T   T   T
  0.7251791025803165  0.7792618566793761  0.4945073853008712   T   T   T
  0.7251855486289595  0.9459214929079536  0.4949124211881812   T   T   T
  0.8918465050320969  0.1125959293102580  0.4951472995986355   T   T   T
  0.8918323193449559  0.2792598755818876  0.4951622420096821   T   T   T
  0.8918281462264078  0.4459291212387641  0.4950111793011566   T   T   T
  0.8918402638697569  0.6126061768718296  0.4948876085803097   T   T   T
  0.8918605306056600  0.7792792043904008  0.4948421959073350   T   T   T
  0.8918571263843956  0.9459336232173962  0.4950309088312181   T   T   T
  0.6344065683802750  0.4083202849576821  0.6111746085462773   T   T   T
  0.6196507687632745  0.5025364514914263  0.6147774368018630   T   T   T
  0.5067674037401092  0.4781723585125825  0.6148578974543297   T   T   T
  0.4935929303120679  0.5737168427345204  0.6110023627406088   T   T   T
  0.3863617403004981  0.5555860929925391  0.6215218133509696   T   T   T
  0.3627228389588230  0.6395720985101814  0.6069567026990281   T   T   T
  0.5834093312627707  0.3404976676386149  0.6388401521092841   T   T   T
  0.6023247595099753  0.3620704460858470  0.5774133317428136   T   T   T
  0.7345330636723184  0.4402281762852288  0.6146055018569667   T   T   T
  0.6652195313581242  0.5498613740780218  0.6477465263194515   T   T   T
  0.6697422400930653  0.5659448312235598  0.5852361563396856   T   T   T
  0.4578202427708195  0.4132304108237969  0.5855543434080417   T   T   T
  0.4633410122085549  0.4295569598542462  0.6480034100415478   T   T   T
  0.5658441998515834  0.6488104237969557  0.6332276962504166   T   T   T
  0.5128583774169947  0.6048258831385461  0.5741103619892551   T   T   T
  0.3166640573846675  0.4599206611194840  0.6084887955526318   T   T   T
  0.3786250392055922  0.5513567838625344  0.6606221036190548   T   T   T
  0.4351882290022398  0.7286201635864170  0.6116290110062461   T   T   T
  0.2748070134161969  0.6068972772282855  0.5943508671779646   T   T   T
 
  0.00000000E+00  0.00000000E+00  0.00000000E+00
  0.00000000E+00  0.00000000E+00  0.00000000E+00
  0.00000000E+00  0.00000000E+00  0.00000000E+00
  0.00000000E+00  0.00000000E+00  0.00000000E+00
  0.00000000E+00  0.00000000E+00  0.00000000E+00
  0.00000000E+00  0.00000000E+00  0.00000000E+00
  0.00000000E+00  0.00000000E+00  0.00000000E+00
  0.00000000E+00  0.00000000E+00  0.00000000E+00
  0.00000000E+00  0.00000000E+00  0.00000000E+00
  0.00000000E+00  0.00000000E+00  0.00000000E+00
  0.00000000E+00  0.00000000E+00  0.00000000E+00
  0.00000000E+00  0.00000000E+00  0.00000000E+00
  0.00000000E+00  0.00000000E+00  0.00000000E+00
  0.00000000E+00  0.00000000E+00  0.00000000E+00
  0.00000000E+00  0.00000000E+00  0.00000000E+00
  0.00000000E+00  0.00000000E+00  0.00000000E+00
  0.00000000E+00  0.00000000E+00  0.00000000E+00
  0.00000000E+00  0.00000000E+00  0.00000000E+00
  0.00000000E+00  0.00000000E+00  0.00000000E+00
  0.00000000E+00  0.00000000E+00  0.00000000E+00
  0.00000000E+00  0.00000000E+00  0.00000000E+00
  0.00000000E+00  0.00000000E+00  0.00000000E+00
  0.00000000E+00  0.00000000E+00  0.00000000E+00
  0.00000000E+00  0.00000000E+00  0.00000000E+00
  0.00000000E+00  0.00000000E+00  0.00000000E+00
  0.00000000E+00  0.00000000E+00  0.00000000E+00
  0.00000000E+00  0.00000000E+00  0.00000000E+00
  0.00000000E+00  0.00000000E+00  0.00000000E+00
  0.00000000E+00  0.00000000E+00  0.00000000E+00
  0.00000000E+00  0.00000000E+00  0.00000000E+00
  0.00000000E+00  0.00000000E+00  0.00000000E+00
  0.00000000E+00  0.00000000E+00  0.00000000E+00
  0.00000000E+00  0.00000000E+00  0.00000000E+00
  0.00000000E+00  0.00000000E+00  0.00000000E+00
  0.00000000E+00  0.00000000E+00  0.00000000E+00
  0.00000000E+00  0.00000000E+00  0.00000000E+00
  0.00000000E+00  0.00000000E+00  0.00000000E+00
  0.00000000E+00  0.00000000E+00  0.00000000E+00
  0.00000000E+00  0.00000000E+00  0.00000000E+00
  0.00000000E+00  0.00000000E+00  0.00000000E+00
  0.00000000E+00  0.00000000E+00  0.00000000E+00
  0.00000000E+00  0.00000000E+00  0.00000000E+00
  0.00000000E+00  0.00000000E+00  0.00000000E+00
  0.00000000E+00  0.00000000E+00  0.00000000E+00
  0.00000000E+00  0.00000000E+00  0.00000000E+00
  0.00000000E+00  0.00000000E+00  0.00000000E+00
  0.00000000E+00  0.00000000E+00  0.00000000E+00
  0.00000000E+00  0.00000000E+00  0.00000000E+00
  0.00000000E+00  0.00000000E+00  0.00000000E+00
  0.00000000E+00  0.00000000E+00  0.00000000E+00
  0.00000000E+00  0.00000000E+00  0.00000000E+00
  0.00000000E+00  0.00000000E+00  0.00000000E+00
  0.00000000E+00  0.00000000E+00  0.00000000E+00
  0.00000000E+00  0.00000000E+00  0.00000000E+00
  0.00000000E+00  0.00000000E+00  0.00000000E+00
  0.00000000E+00  0.00000000E+00  0.00000000E+00
  0.00000000E+00  0.00000000E+00  0.00000000E+00
  0.00000000E+00  0.00000000E+00  0.00000000E+00
  0.00000000E+00  0.00000000E+00  0.00000000E+00
  0.00000000E+00  0.00000000E+00  0.00000000E+00
  0.00000000E+00  0.00000000E+00  0.00000000E+00
  0.00000000E+00  0.00000000E+00  0.00000000E+00
  0.00000000E+00  0.00000000E+00  0.00000000E+00
  0.00000000E+00  0.00000000E+00  0.00000000E+00
  0.00000000E+00  0.00000000E+00  0.00000000E+00
  0.00000000E+00  0.00000000E+00  0.00000000E+00
  0.00000000E+00  0.00000000E+00  0.00000000E+00
  0.00000000E+00  0.00000000E+00  0.00000000E+00
  0.00000000E+00  0.00000000E+00  0.00000000E+00
  0.00000000E+00  0.00000000E+00  0.00000000E+00
  0.00000000E+00  0.00000000E+00  0.00000000E+00
  0.00000000E+00  0.00000000E+00  0.00000000E+00
  0.00000000E+00  0.00000000E+00  0.00000000E+00
  0.00000000E+00  0.00000000E+00  0.00000000E+00
  0.00000000E+00  0.00000000E+00  0.00000000E+00
  0.00000000E+00  0.00000000E+00  0.00000000E+00
  0.00000000E+00  0.00000000E+00  0.00000000E+00
  0.00000000E+00  0.00000000E+00  0.00000000E+00
  0.00000000E+00  0.00000000E+00  0.00000000E+00
  0.00000000E+00  0.00000000E+00  0.00000000E+00
  0.00000000E+00  0.00000000E+00  0.00000000E+00
  0.00000000E+00  0.00000000E+00  0.00000000E+00
  0.00000000E+00  0.00000000E+00  0.00000000E+00
  0.00000000E+00  0.00000000E+00  0.00000000E+00
  0.00000000E+00  0.00000000E+00  0.00000000E+00
  0.00000000E+00  0.00000000E+00  0.00000000E+00
  0.00000000E+00  0.00000000E+00  0.00000000E+00
  0.00000000E+00  0.00000000E+00  0.00000000E+00
  0.00000000E+00  0.00000000E+00  0.00000000E+00
  0.00000000E+00  0.00000000E+00  0.00000000E+00
  0.00000000E+00  0.00000000E+00  0.00000000E+00
