B N C F O                               
   1.00000000000000     
     7.5365500567000003  -13.0537460594369996    0.0000000000000000
     7.5365500567000003   13.0537460594369996    0.0000000000000000
     0.0000000000000000    0.0000000000000000   35.1146643855649998
   B    N    C    F    O 
    36    36     3     5     2
Selective dynamics
Direct
  0.1111122670936737  0.0556196575471191  0.5003480729819501   T   T   T
  0.1111049012490923  0.2222810923226604  0.5003598794371840   T   T   T
  0.1111126312518920  0.3889576415635574  0.5003440828898036   T   T   T
  0.1111143160122765  0.5556333060139238  0.5002945657636388   T   T   T
  0.1111255232451072  0.7223056270259747  0.5002681670182412   T   T   T
  0.1111224307127401  0.8889671368754151  0.5002902945150609   T   T   T
  0.2777921149275926  0.0556234682252352  0.5003931119613938   T   T   T
  0.2777823075528758  0.2222759611214471  0.5004472164708460   T   T   T
  0.2777860448112506  0.3889541434266306  0.5003962571023450   T   T   T
  0.2777925652117545  0.5556568022632860  0.5002571110750154   T   T   T
  0.2777992104012128  0.7223198558693085  0.5002862204501781   T   T   T
  0.2777977605671467  0.8889735537264798  0.5002925375718732   T   T   T
  0.4444725528820896  0.0556272261516710  0.5003535994501007   T   T   T
  0.4444712937711230  0.2222864186985305  0.5004680793716005   T   T   T
  0.4444772425608008  0.3889654284753234  0.5004884724166914   T   T   T
  0.4444808556934703  0.5556562297037431  0.5003574079617295   T   T   T
  0.4444699329531332  0.7223112269398584  0.5003116165562957   T   T   T
  0.4444714459896488  0.8889760944730583  0.5002973936182116   T   T   T
  0.6111355613926648  0.0556359605868977  0.5003020521653525   T   T   T
  0.6111345437204676  0.2222947612444841  0.5003557741316769   T   T   T
  0.6111346507745381  0.3889630834576181  0.5003931584079311   T   T   T
  0.6111368011230240  0.5556416998165901  0.5003542901745135   T   T   T
  0.6111320571707282  0.7223098554819600  0.5003196301321040   T   T   T
  0.6111324508157097  0.8889738216294063  0.5003003987054342   T   T   T
  0.7777915277809058  0.0556341987169162  0.5002882993302151   T   T   T
  0.7777925908048289  0.2222998133408751  0.5002981519738228   T   T   T
  0.7777934559575286  0.3889659042776543  0.5002975143671051   T   T   T
  0.7777927133684059  0.5556347220671043  0.5002902028888201   T   T   T
  0.7777932864443144  0.7223043429920182  0.5002926217823145   T   T   T
  0.7777897525708184  0.8889683077587591  0.5002883604672590   T   T   T
  0.9444473725809530  0.0556304530965335  0.5003005985491740   T   T   T
  0.9444503504665605  0.2222986269041627  0.5003058681152268   T   T   T
  0.9444532647752268  0.3889663128833121  0.5002961551501670   T   T   T
  0.9444563899066409  0.5556363489575844  0.5002755021970913   T   T   T
  0.9444561240485712  0.7223042425942552  0.5002712887327334   T   T   T
  0.9444533014431329  0.8889696333698893  0.5002861339149831   T   T   T
  0.0555758767251362  0.1111910476331062  0.5003249272707251   T   T   T
  0.0555813673888750  0.2778599092408811  0.5003330173310019   T   T   T
  0.0555803647663922  0.4445261805418212  0.5003121481488151   T   T   T
  0.0555753394254097  0.6111948154605855  0.5002709609783267   T   T   T
  0.0555754406184761  0.7778618837663700  0.5002635350578970   T   T   T
  0.0555749456202577  0.9445262344055863  0.5002969699463193   T   T   T
  0.2222374652247083  0.1111856341543813  0.5004159180643128   T   T   T
  0.2222399521831520  0.2778507043439831  0.5004384929500034   T   T   T
  0.2222512122480182  0.4445298769514210  0.5003604075396950   T   T   T
  0.2222353796766754  0.6111971066667508  0.5002867112943790   T   T   T
  0.2222397313651072  0.7778633742524619  0.5002700887371390   T   T   T
  0.2222388774148882  0.9445265745717606  0.5003085975987105   T   T   T
  0.3889043792401168  0.1111862374795365  0.5004365612719610   T   T   T
  0.3888960632685610  0.2778474864056193  0.5005598894697769   T   T   T
  0.3888999697502484  0.4445181648898284  0.5004839717533542   T   T   T
  0.3888915623607048  0.6111799523022299  0.5003052425111747   T   T   T
  0.3889011491176291  0.7778555339435584  0.5002996458325484   T   T   T
  0.3889036417791161  0.9445240361025355  0.5002971179293567   T   T   T
  0.5555705560861313  0.1111899333233382  0.5003275737685229   T   T   T
  0.5555641602144377  0.2778503783284521  0.5004308187598312   T   T   T
  0.5555645444794521  0.4445173717638440  0.5004264708450421   T   T   T
  0.5555654437443280  0.6111846381611699  0.5003470506711380   T   T   T
  0.5555648789242653  0.7778542000290329  0.5003126434515366   T   T   T
  0.5555702452646329  0.9445244317576567  0.5002907070440585   T   T   T
  0.7222398758819821  0.1111938411778581  0.5002889326438833   T   T   T
  0.7222359828131601  0.2778575527037219  0.5003039514992693   T   T   T
  0.7222325714642110  0.4445202130103922  0.5003076639880817   T   T   T
  0.7222341469677076  0.6111865318660108  0.5002959110601708   T   T   T
  0.7222350009168537  0.7778544538501606  0.5002920097775885   T   T   T
  0.7222375695115062  0.9445242090605745  0.5002867734761480   T   T   T
  0.8889105841985909  0.1111980422833412  0.5002877135589685   T   T   T
  0.8889103392257383  0.2778647359165376  0.5002931859970658   T   T   T
  0.8889083049138193  0.4445285591321522  0.5002766811750874   T   T   T
  0.8889058403293362  0.6111931474534202  0.5002673691926063   T   T   T
  0.8889079474739745  0.7778615993578626  0.5002766855734109   T   T   T
  0.8889073038469206  0.9445279547128962  0.5002840534164505   T   T   T
  0.3769907448363412  0.2983938011969158  0.6586266717222813   T   T   T
  0.3622386152916448  0.2665516372114141  0.6173729654678368   T   T   T
  0.3143629591732875  0.5225677396119011  0.6092660506478893   T   T   T
  0.4668899800608841  0.3850692991938871  0.6632023610220017   T   T   T
  0.3770874978276879  0.2265081310177663  0.6817129440048788   T   T   T
  0.3009166540747117  0.3138875437757207  0.6701083766848654   T   T   T
  0.4383238222058807  0.2574372051805724  0.6026506879673548   T   T   T
  0.2715410911064069  0.1858771165094026  0.6096316195044835   T   T   T
  0.4021359256079577  0.5775422546321920  0.6059616791432276   T   T   T
  0.2265904985896725  0.4673196079641144  0.6123788712548119   T   T   T
 
  0.00000000E+00  0.00000000E+00  0.00000000E+00
  0.00000000E+00  0.00000000E+00  0.00000000E+00
  0.00000000E+00  0.00000000E+00  0.00000000E+00
  0.00000000E+00  0.00000000E+00  0.00000000E+00
  0.00000000E+00  0.00000000E+00  0.00000000E+00
  0.00000000E+00  0.00000000E+00  0.00000000E+00
  0.00000000E+00  0.00000000E+00  0.00000000E+00
  0.00000000E+00  0.00000000E+00  0.00000000E+00
  0.00000000E+00  0.00000000E+00  0.00000000E+00
  0.00000000E+00  0.00000000E+00  0.00000000E+00
  0.00000000E+00  0.00000000E+00  0.00000000E+00
  0.00000000E+00  0.00000000E+00  0.00000000E+00
  0.00000000E+00  0.00000000E+00  0.00000000E+00
  0.00000000E+00  0.00000000E+00  0.00000000E+00
  0.00000000E+00  0.00000000E+00  0.00000000E+00
  0.00000000E+00  0.00000000E+00  0.00000000E+00
  0.00000000E+00  0.00000000E+00  0.00000000E+00
  0.00000000E+00  0.00000000E+00  0.00000000E+00
  0.00000000E+00  0.00000000E+00  0.00000000E+00
  0.00000000E+00  0.00000000E+00  0.00000000E+00
  0.00000000E+00  0.00000000E+00  0.00000000E+00
  0.00000000E+00  0.00000000E+00  0.00000000E+00
  0.00000000E+00  0.00000000E+00  0.00000000E+00
  0.00000000E+00  0.00000000E+00  0.00000000E+00
  0.00000000E+00  0.00000000E+00  0.00000000E+00
  0.00000000E+00  0.00000000E+00  0.00000000E+00
  0.00000000E+00  0.00000000E+00  0.00000000E+00
  0.00000000E+00  0.00000000E+00  0.00000000E+00
  0.00000000E+00  0.00000000E+00  0.00000000E+00
  0.00000000E+00  0.00000000E+00  0.00000000E+00
  0.00000000E+00  0.00000000E+00  0.00000000E+00
  0.00000000E+00  0.00000000E+00  0.00000000E+00
  0.00000000E+00  0.00000000E+00  0.00000000E+00
  0.00000000E+00  0.00000000E+00  0.00000000E+00
  0.00000000E+00  0.00000000E+00  0.00000000E+00
  0.00000000E+00  0.00000000E+00  0.00000000E+00
  0.00000000E+00  0.00000000E+00  0.00000000E+00
  0.00000000E+00  0.00000000E+00  0.00000000E+00
  0.00000000E+00  0.00000000E+00  0.00000000E+00
  0.00000000E+00  0.00000000E+00  0.00000000E+00
  0.00000000E+00  0.00000000E+00  0.00000000E+00
  0.00000000E+00  0.00000000E+00  0.00000000E+00
  0.00000000E+00  0.00000000E+00  0.00000000E+00
  0.00000000E+00  0.00000000E+00  0.00000000E+00
  0.00000000E+00  0.00000000E+00  0.00000000E+00
  0.00000000E+00  0.00000000E+00  0.00000000E+00
  0.00000000E+00  0.00000000E+00  0.00000000E+00
  0.00000000E+00  0.00000000E+00  0.00000000E+00
  0.00000000E+00  0.00000000E+00  0.00000000E+00
  0.00000000E+00  0.00000000E+00  0.00000000E+00
  0.00000000E+00  0.00000000E+00  0.00000000E+00
  0.00000000E+00  0.00000000E+00  0.00000000E+00
  0.00000000E+00  0.00000000E+00  0.00000000E+00
  0.00000000E+00  0.00000000E+00  0.00000000E+00
  0.00000000E+00  0.00000000E+00  0.00000000E+00
  0.00000000E+00  0.00000000E+00  0.00000000E+00
  0.00000000E+00  0.00000000E+00  0.00000000E+00
  0.00000000E+00  0.00000000E+00  0.00000000E+00
  0.00000000E+00  0.00000000E+00  0.00000000E+00
  0.00000000E+00  0.00000000E+00  0.00000000E+00
  0.00000000E+00  0.00000000E+00  0.00000000E+00
  0.00000000E+00  0.00000000E+00  0.00000000E+00
  0.00000000E+00  0.00000000E+00  0.00000000E+00
  0.00000000E+00  0.00000000E+00  0.00000000E+00
  0.00000000E+00  0.00000000E+00  0.00000000E+00
  0.00000000E+00  0.00000000E+00  0.00000000E+00
  0.00000000E+00  0.00000000E+00  0.00000000E+00
  0.00000000E+00  0.00000000E+00  0.00000000E+00
  0.00000000E+00  0.00000000E+00  0.00000000E+00
  0.00000000E+00  0.00000000E+00  0.00000000E+00
  0.00000000E+00  0.00000000E+00  0.00000000E+00
  0.00000000E+00  0.00000000E+00  0.00000000E+00
  0.00000000E+00  0.00000000E+00  0.00000000E+00
  0.00000000E+00  0.00000000E+00  0.00000000E+00
  0.00000000E+00  0.00000000E+00  0.00000000E+00
  0.00000000E+00  0.00000000E+00  0.00000000E+00
  0.00000000E+00  0.00000000E+00  0.00000000E+00
  0.00000000E+00  0.00000000E+00  0.00000000E+00
  0.00000000E+00  0.00000000E+00  0.00000000E+00
  0.00000000E+00  0.00000000E+00  0.00000000E+00
  0.00000000E+00  0.00000000E+00  0.00000000E+00
  0.00000000E+00  0.00000000E+00  0.00000000E+00
