C F O                                   
   1.00000000000000     
    23.0450674500000012    0.0000000000000000    0.0000000000000000
     0.0000000000000000   26.8761253300000007    0.0000000000000000
     0.0000000000000000    0.0000000000000000   22.9912726200000002
   C    F    O 
     5     9     2
Selective dynamics
Direct
  0.5186089025242633  0.5887005195406281  0.5064264942328055   T   T   T
  0.4836044681948518  0.5395774820200269  0.5092490294533444   T   T   T
  0.5209128989262248  0.4916131216417166  0.5086874483375780   T   T   T
  0.4878096360152467  0.4432247500881661  0.4944613245536361   T   T   T
  0.5211046003460790  0.3952361901622318  0.5133525864247576   T   T   T
  0.5421402530873148  0.5953101394297465  0.4537811703964370   T   T   T
  0.5609262967972937  0.5886818045312303  0.5464717854244331   T   T   T
  0.4517331374274711  0.5409136462105661  0.5586604195924743   T   T   T
  0.4470551945758172  0.5393142438289484  0.4630142103871021   T   T   T
  0.5644321146619761  0.4984464458663225  0.4697135006473395   T   T   T
  0.5449485134529993  0.4866413932881173  0.5625155601073473   T   T   T
  0.4344526406714985  0.4468813641412874  0.5203951916483708   T   T   T
  0.4780003443840390  0.4421848889969709  0.4356016203208611   T   T   T
  0.4829280789902646  0.6270036828948016  0.5171741327446857   T   T   T
  0.5692530712472778  0.3909949574561578  0.4891000905240434   T   T   T
  0.4957488349503912  0.3681251674700734  0.5489674999217914   T   T   T
 
  0.00000000E+00  0.00000000E+00  0.00000000E+00
  0.00000000E+00  0.00000000E+00  0.00000000E+00
  0.00000000E+00  0.00000000E+00  0.00000000E+00
  0.00000000E+00  0.00000000E+00  0.00000000E+00
  0.00000000E+00  0.00000000E+00  0.00000000E+00
  0.00000000E+00  0.00000000E+00  0.00000000E+00
  0.00000000E+00  0.00000000E+00  0.00000000E+00
  0.00000000E+00  0.00000000E+00  0.00000000E+00
  0.00000000E+00  0.00000000E+00  0.00000000E+00
  0.00000000E+00  0.00000000E+00  0.00000000E+00
  0.00000000E+00  0.00000000E+00  0.00000000E+00
  0.00000000E+00  0.00000000E+00  0.00000000E+00
  0.00000000E+00  0.00000000E+00  0.00000000E+00
  0.00000000E+00  0.00000000E+00  0.00000000E+00
  0.00000000E+00  0.00000000E+00  0.00000000E+00
  0.00000000E+00  0.00000000E+00  0.00000000E+00
