B N                                     
   1.00000000000000     
     7.5365500567000003  -13.0537460594369996    0.0000000000000000
     7.5365500567000003   13.0537460594369996    0.0000000000000000
     0.0000000000000000    0.0000000000000000   35.1146643855649998
   B    N 
    36    36
Selective dynamics
Direct
  0.1111114304749989  0.0555559017990035  0.5000000000000000   T   T   T
  0.1111114304749989  0.2222225684649999  0.5000000000000000   T   T   T
  0.1111114304749989  0.3888892351319981  0.5000000000000000   T   T   T
  0.1111114304749989  0.5555559017990035  0.5000000000000000   T   T   T
  0.1111114304749989  0.7222225684649999  0.5000000000000000   T   T   T
  0.1111114304749989  0.8888892351319981  0.5000000000000000   T   T   T
  0.2777780971419972  0.0555559017990035  0.5000000000000000   T   T   T
  0.2777780971419972  0.2222225684649999  0.5000000000000000   T   T   T
  0.2777780971419972  0.3888892351319981  0.5000000000000000   T   T   T
  0.2777780971419972  0.5555559017990035  0.5000000000000000   T   T   T
  0.2777780971419972  0.7222225684649999  0.5000000000000000   T   T   T
  0.2777780971419972  0.8888892351319981  0.5000000000000000   T   T   T
  0.4444447638090026  0.0555559017990035  0.5000000000000000   T   T   T
  0.4444447638090026  0.2222225684649999  0.5000000000000000   T   T   T
  0.4444447638090026  0.3888892351319981  0.5000000000000000   T   T   T
  0.4444447638090026  0.5555559017990035  0.5000000000000000   T   T   T
  0.4444447638090026  0.7222225684649999  0.5000000000000000   T   T   T
  0.4444447638090026  0.8888892351319981  0.5000000000000000   T   T   T
  0.6111114304749989  0.0555559017990035  0.5000000000000000   T   T   T
  0.6111114304749989  0.2222225684649999  0.5000000000000000   T   T   T
  0.6111114304749989  0.3888892351319981  0.5000000000000000   T   T   T
  0.6111114304749989  0.5555559017990035  0.5000000000000000   T   T   T
  0.6111114304749989  0.7222225684649999  0.5000000000000000   T   T   T
  0.6111114304749989  0.8888892351319981  0.5000000000000000   T   T   T
  0.7777780971419972  0.0555559017990035  0.5000000000000000   T   T   T
  0.7777780971419972  0.2222225684649999  0.5000000000000000   T   T   T
  0.7777780971419972  0.3888892351319981  0.5000000000000000   T   T   T
  0.7777780971419972  0.5555559017990035  0.5000000000000000   T   T   T
  0.7777780971419972  0.7222225684649999  0.5000000000000000   T   T   T
  0.7777780971419972  0.8888892351319981  0.5000000000000000   T   T   T
  0.9444447638090026  0.0555559017990035  0.5000000000000000   T   T   T
  0.9444447638090026  0.2222225684649999  0.5000000000000000   T   T   T
  0.9444447638090026  0.3888892351319981  0.5000000000000000   T   T   T
  0.9444447638090026  0.5555559017990035  0.5000000000000000   T   T   T
  0.9444447638090026  0.7222225684649999  0.5000000000000000   T   T   T
  0.9444447638090026  0.8888892351319981  0.5000000000000000   T   T   T
  0.0555559017990035  0.1111114304749989  0.5000000000000000   T   T   T
  0.0555559017990035  0.2777780971419972  0.5000000000000000   T   T   T
  0.0555559017990035  0.4444447638090026  0.5000000000000000   T   T   T
  0.0555559017990035  0.6111114304749989  0.5000000000000000   T   T   T
  0.0555559017990035  0.7777780971419972  0.5000000000000000   T   T   T
  0.0555559017990035  0.9444447638090026  0.5000000000000000   T   T   T
  0.2222225684649999  0.1111114304749989  0.5000000000000000   T   T   T
  0.2222225684649999  0.2777780971419972  0.5000000000000000   T   T   T
  0.2222225684649999  0.4444447638090026  0.5000000000000000   T   T   T
  0.2222225684649999  0.6111114304749989  0.5000000000000000   T   T   T
  0.2222225684649999  0.7777780971419972  0.5000000000000000   T   T   T
  0.2222225684649999  0.9444447638090026  0.5000000000000000   T   T   T
  0.3888892351319981  0.1111114304749989  0.5000000000000000   T   T   T
  0.3888892351319981  0.2777780971419972  0.5000000000000000   T   T   T
  0.3888892351319981  0.4444447638090026  0.5000000000000000   T   T   T
  0.3888892351319981  0.6111114304749989  0.5000000000000000   T   T   T
  0.3888892351319981  0.7777780971419972  0.5000000000000000   T   T   T
  0.3888892351319981  0.9444447638090026  0.5000000000000000   T   T   T
  0.5555559017990035  0.1111114304749989  0.5000000000000000   T   T   T
  0.5555559017990035  0.2777780971419972  0.5000000000000000   T   T   T
  0.5555559017990035  0.4444447638090026  0.5000000000000000   T   T   T
  0.5555559017990035  0.6111114304749989  0.5000000000000000   T   T   T
  0.5555559017990035  0.7777780971419972  0.5000000000000000   T   T   T
  0.5555559017990035  0.9444447638090026  0.5000000000000000   T   T   T
  0.7222225684649999  0.1111114304749989  0.5000000000000000   T   T   T
  0.7222225684649999  0.2777780971419972  0.5000000000000000   T   T   T
  0.7222225684649999  0.4444447638090026  0.5000000000000000   T   T   T
  0.7222225684649999  0.6111114304749989  0.5000000000000000   T   T   T
  0.7222225684649999  0.7777780971419972  0.5000000000000000   T   T   T
  0.7222225684649999  0.9444447638090026  0.5000000000000000   T   T   T
  0.8888892351319981  0.1111114304749989  0.5000000000000000   T   T   T
  0.8888892351319981  0.2777780971419972  0.5000000000000000   T   T   T
  0.8888892351319981  0.4444447638090026  0.5000000000000000   T   T   T
  0.8888892351319981  0.6111114304749989  0.5000000000000000   T   T   T
  0.8888892351319981  0.7777780971419972  0.5000000000000000   T   T   T
  0.8888892351319981  0.9444447638090026  0.5000000000000000   T   T   T
 
  0.00000000E+00  0.00000000E+00  0.00000000E+00
  0.00000000E+00  0.00000000E+00  0.00000000E+00
  0.00000000E+00  0.00000000E+00  0.00000000E+00
  0.00000000E+00  0.00000000E+00  0.00000000E+00
  0.00000000E+00  0.00000000E+00  0.00000000E+00
  0.00000000E+00  0.00000000E+00  0.00000000E+00
  0.00000000E+00  0.00000000E+00  0.00000000E+00
  0.00000000E+00  0.00000000E+00  0.00000000E+00
  0.00000000E+00  0.00000000E+00  0.00000000E+00
  0.00000000E+00  0.00000000E+00  0.00000000E+00
  0.00000000E+00  0.00000000E+00  0.00000000E+00
  0.00000000E+00  0.00000000E+00  0.00000000E+00
  0.00000000E+00  0.00000000E+00  0.00000000E+00
  0.00000000E+00  0.00000000E+00  0.00000000E+00
  0.00000000E+00  0.00000000E+00  0.00000000E+00
  0.00000000E+00  0.00000000E+00  0.00000000E+00
  0.00000000E+00  0.00000000E+00  0.00000000E+00
  0.00000000E+00  0.00000000E+00  0.00000000E+00
  0.00000000E+00  0.00000000E+00  0.00000000E+00
  0.00000000E+00  0.00000000E+00  0.00000000E+00
  0.00000000E+00  0.00000000E+00  0.00000000E+00
  0.00000000E+00  0.00000000E+00  0.00000000E+00
  0.00000000E+00  0.00000000E+00  0.00000000E+00
  0.00000000E+00  0.00000000E+00  0.00000000E+00
  0.00000000E+00  0.00000000E+00  0.00000000E+00
  0.00000000E+00  0.00000000E+00  0.00000000E+00
  0.00000000E+00  0.00000000E+00  0.00000000E+00
  0.00000000E+00  0.00000000E+00  0.00000000E+00
  0.00000000E+00  0.00000000E+00  0.00000000E+00
  0.00000000E+00  0.00000000E+00  0.00000000E+00
  0.00000000E+00  0.00000000E+00  0.00000000E+00
  0.00000000E+00  0.00000000E+00  0.00000000E+00
  0.00000000E+00  0.00000000E+00  0.00000000E+00
  0.00000000E+00  0.00000000E+00  0.00000000E+00
  0.00000000E+00  0.00000000E+00  0.00000000E+00
  0.00000000E+00  0.00000000E+00  0.00000000E+00
  0.00000000E+00  0.00000000E+00  0.00000000E+00
  0.00000000E+00  0.00000000E+00  0.00000000E+00
  0.00000000E+00  0.00000000E+00  0.00000000E+00
  0.00000000E+00  0.00000000E+00  0.00000000E+00
  0.00000000E+00  0.00000000E+00  0.00000000E+00
  0.00000000E+00  0.00000000E+00  0.00000000E+00
  0.00000000E+00  0.00000000E+00  0.00000000E+00
  0.00000000E+00  0.00000000E+00  0.00000000E+00
  0.00000000E+00  0.00000000E+00  0.00000000E+00
  0.00000000E+00  0.00000000E+00  0.00000000E+00
  0.00000000E+00  0.00000000E+00  0.00000000E+00
  0.00000000E+00  0.00000000E+00  0.00000000E+00
  0.00000000E+00  0.00000000E+00  0.00000000E+00
  0.00000000E+00  0.00000000E+00  0.00000000E+00
  0.00000000E+00  0.00000000E+00  0.00000000E+00
  0.00000000E+00  0.00000000E+00  0.00000000E+00
  0.00000000E+00  0.00000000E+00  0.00000000E+00
  0.00000000E+00  0.00000000E+00  0.00000000E+00
  0.00000000E+00  0.00000000E+00  0.00000000E+00
  0.00000000E+00  0.00000000E+00  0.00000000E+00
  0.00000000E+00  0.00000000E+00  0.00000000E+00
  0.00000000E+00  0.00000000E+00  0.00000000E+00
  0.00000000E+00  0.00000000E+00  0.00000000E+00
  0.00000000E+00  0.00000000E+00  0.00000000E+00
  0.00000000E+00  0.00000000E+00  0.00000000E+00
  0.00000000E+00  0.00000000E+00  0.00000000E+00
  0.00000000E+00  0.00000000E+00  0.00000000E+00
  0.00000000E+00  0.00000000E+00  0.00000000E+00
  0.00000000E+00  0.00000000E+00  0.00000000E+00
  0.00000000E+00  0.00000000E+00  0.00000000E+00
  0.00000000E+00  0.00000000E+00  0.00000000E+00
  0.00000000E+00  0.00000000E+00  0.00000000E+00
  0.00000000E+00  0.00000000E+00  0.00000000E+00
  0.00000000E+00  0.00000000E+00  0.00000000E+00
  0.00000000E+00  0.00000000E+00  0.00000000E+00
  0.00000000E+00  0.00000000E+00  0.00000000E+00
