B N                                     
   1.00000000000000     
     1.2552264346502424   -2.1741126872838419    0.0000000000000000
     1.2552264346502424    2.1741126872838419    0.0000000000000000
     0.0000000000000000    0.0000000000000000   14.9857504017395744
   B    N 
     1     1
Selective dynamics
Direct
  0.3333330560010026  0.6666668646159977  0.1114123757100032   T   T   T
  0.6666668646159977  0.3333330560010026  0.1114123757100032   T   T   T
 
  0.00000000E+00  0.00000000E+00  0.00000000E+00
  0.00000000E+00  0.00000000E+00  0.00000000E+00
