B N C F O                               
   1.00000000000000     
     7.5365500567000003  -13.0537460594369996    0.0000000000000000
     7.5365500567000003   13.0537460594369996    0.0000000000000000
     0.0000000000000000    0.0000000000000000   35.1146643855649998
   B    N    C    F    O 
    36    36     3     5     2
Selective dynamics
Direct
  0.1110728626772419  0.0555405084194664  0.5001816438569063   T   T   T
  0.1111218899291070  0.2222305267379212  0.5002132998977782   T   T   T
  0.1112260975915795  0.3889279342150405  0.5000022710053038   T   T   T
  0.1111827231282922  0.5555704145966991  0.5002005641433619   T   T   T
  0.1111112890184182  0.7222304191487944  0.5001422441224214   T   T   T
  0.1110894056822532  0.8888943162484292  0.5000077461750866   T   T   T
  0.2777183890645835  0.0555324681209973  0.5000839335944884   T   T   T
  0.2778130737932565  0.2222705408870548  0.5000273449344194   T   T   T
  0.2779440738141411  0.3890215280450219  0.4998789530818152   T   T   T
  0.2779447461831928  0.5555285953740350  0.4998635790927752   T   T   T
  0.2777968622069338  0.7221432373134513  0.5002615121345001   T   T   T
  0.2777091232005570  0.8888223883379823  0.5001489500823281   T   T   T
  0.4443937099838830  0.0555061815661624  0.5001905953348630   T   T   T
  0.4444088047691261  0.2222185447333616  0.4997615133585819   T   T   T
  0.4444719368946180  0.3889580517339965  0.4989728408050987   T   T   T
  0.4444056008448432  0.5555760621707088  0.4993833114121933   T   T   T
  0.4443956424203984  0.7219641944784594  0.4999107109060354   T   T   T
  0.4443748583329596  0.8887578691884245  0.5002339651582727   T   T   T
  0.6110461779781136  0.0554823741693509  0.5001586739739421   T   T   T
  0.6110790924842336  0.2222305158035370  0.5001394403473055   T   T   T
  0.6110283662376764  0.3889424571800381  0.4991997824230938   T   T   T
  0.6110244075772141  0.5555158152770466  0.4987160389375233   T   T   T
  0.6109299092372295  0.7220101460486924  0.4997314833839334   T   T   T
  0.6110073983008624  0.8887107207267089  0.5000486023264260   T   T   T
  0.7777208214858808  0.0555288868338921  0.5000354261295098   T   T   T
  0.7777229282386060  0.2221904965718766  0.5001224008584692   T   T   T
  0.7777374686495846  0.3888837238702121  0.5001093049865696   T   T   T
  0.7777381830039107  0.5555700960804160  0.4995369298465970   T   T   T
  0.7777125195071927  0.7221639304957522  0.4997242989593074   T   T   T
  0.7777107901894206  0.8888223712594004  0.5001695073640470   T   T   T
  0.9444010577649878  0.0555474622737083  0.5001309061461690   T   T   T
  0.9443943528505543  0.2222186482107089  0.5000050918951247   T   T   T
  0.9444429387189398  0.3888895142490084  0.5001359647467598   T   T   T
  0.9444426315304489  0.5555652525265823  0.5001522362488169   T   T   T
  0.9444409484724980  0.7222628358063703  0.4999592236186322   T   T   T
  0.9444213840201126  0.8888999512521626  0.5001123818443107   T   T   T
  0.0555110692223885  0.1110872207221314  0.5002066174301582   T   T   T
  0.0554988810335350  0.2777498336291555  0.5000701298677503   T   T   T
  0.0555418192827018  0.4444250514865140  0.5000807893393523   T   T   T
  0.0555593012473420  0.6111148463066768  0.5002114136568656   T   T   T
  0.0555631257379021  0.7778061690955514  0.5000011500469462   T   T   T
  0.0555399126550937  0.9444378329513301  0.5000789876403097   T   T   T
  0.2221793793321790  0.1110935242730672  0.5001655440395643   T   T   T
  0.2222203748896183  0.2777892497275105  0.5002004410214663   T   T   T
  0.2222181218481920  0.4444093487753557  0.4997842038617550   T   T   T
  0.2222372474240603  0.6110573943210551  0.5002024853747418   T   T   T
  0.2221984628175744  0.7777360888434708  0.5002055311062115   T   T   T
  0.2221800323364894  0.9444195302479900  0.5000232789783454   T   T   T
  0.3888424357301482  0.1110637510413678  0.5000617490387217   T   T   T
  0.3888915703195611  0.2777500438185783  0.4994964505468318   T   T   T
  0.3889388292053305  0.4444341165473121  0.4992170983902650   T   T   T
  0.3888384237850872  0.6110548450985355  0.4993047236649208   T   T   T
  0.3888745695803296  0.7776918217738227  0.5002504392312408   T   T   T
  0.3888287380555191  0.9443887042267087  0.5002166669313758   T   T   T
  0.5555237766923248  0.1110886321963298  0.5002375709854859   T   T   T
  0.5555370300374010  0.2777730498550918  0.4997554751221630   T   T   T
  0.5555692399269559  0.4444116043333909  0.4982273912393974   T   T   T
  0.5555331885477527  0.6110272373992003  0.4989713550067510   T   T   T
  0.5555213323269546  0.7777157361282827  0.4997966420594658   T   T   T
  0.5555088714201506  0.9443928191176511  0.5001427962421509   T   T   T
  0.7221685634536619  0.1110860827589702  0.5000422629775463   T   T   T
  0.7221937949377363  0.2777572960122376  0.5002228903217749   T   T   T
  0.7221929172122842  0.4444304801328340  0.4996596831156664   T   T   T
  0.7222349835559237  0.6111020804394335  0.4990827020400246   T   T   T
  0.7221721805415615  0.7777295187096467  0.5000367335063896   T   T   T
  0.7221849995287382  0.9444300584131977  0.5001123057293468   T   T   T
  0.8888382794950227  0.1111083065113872  0.4999890545749800   T   T   T
  0.8888316922985791  0.2777612523293158  0.5000218643449938   T   T   T
  0.8888656380859389  0.4444287175791066  0.5002156029793318   T   T   T
  0.8888922392556639  0.6111298590786539  0.4999336502015417   T   T   T
  0.8888824046135794  0.7778027907690557  0.4999990387056323   T   T   T
  0.8888620601497458  0.9444479272752411  0.5001811954713342   T   T   T
  0.5447378131967991  0.4686965503659224  0.6045021162375911   T   T   T
  0.4933396313799465  0.5150963653795209  0.6285638090532782   T   T   T
  0.4370941683150443  0.5602980114236360  0.6049354726781819   T   T   T
  0.6165804620266891  0.5396964899588101  0.5815563476582094   T   T   T
  0.5910156145269432  0.4306134778989790  0.6266607842025855   T   T   T
  0.4752968750195679  0.3915304575049767  0.5828436064764116   T   T   T
  0.4276438188170729  0.4387493408102004  0.6526764655314669   T   T   T
  0.5690359704193658  0.5881955386878925  0.6510639851495279   T   T   T
  0.4925815510150575  0.6516548822011577  0.5957244136020697   T   T   T
  0.3452061781746094  0.4983431025762443  0.5984797076500726   T   T   T
 
  0.00000000E+00  0.00000000E+00  0.00000000E+00
  0.00000000E+00  0.00000000E+00  0.00000000E+00
  0.00000000E+00  0.00000000E+00  0.00000000E+00
  0.00000000E+00  0.00000000E+00  0.00000000E+00
  0.00000000E+00  0.00000000E+00  0.00000000E+00
  0.00000000E+00  0.00000000E+00  0.00000000E+00
  0.00000000E+00  0.00000000E+00  0.00000000E+00
  0.00000000E+00  0.00000000E+00  0.00000000E+00
  0.00000000E+00  0.00000000E+00  0.00000000E+00
  0.00000000E+00  0.00000000E+00  0.00000000E+00
  0.00000000E+00  0.00000000E+00  0.00000000E+00
  0.00000000E+00  0.00000000E+00  0.00000000E+00
  0.00000000E+00  0.00000000E+00  0.00000000E+00
  0.00000000E+00  0.00000000E+00  0.00000000E+00
  0.00000000E+00  0.00000000E+00  0.00000000E+00
  0.00000000E+00  0.00000000E+00  0.00000000E+00
  0.00000000E+00  0.00000000E+00  0.00000000E+00
  0.00000000E+00  0.00000000E+00  0.00000000E+00
  0.00000000E+00  0.00000000E+00  0.00000000E+00
  0.00000000E+00  0.00000000E+00  0.00000000E+00
  0.00000000E+00  0.00000000E+00  0.00000000E+00
  0.00000000E+00  0.00000000E+00  0.00000000E+00
  0.00000000E+00  0.00000000E+00  0.00000000E+00
  0.00000000E+00  0.00000000E+00  0.00000000E+00
  0.00000000E+00  0.00000000E+00  0.00000000E+00
  0.00000000E+00  0.00000000E+00  0.00000000E+00
  0.00000000E+00  0.00000000E+00  0.00000000E+00
  0.00000000E+00  0.00000000E+00  0.00000000E+00
  0.00000000E+00  0.00000000E+00  0.00000000E+00
  0.00000000E+00  0.00000000E+00  0.00000000E+00
  0.00000000E+00  0.00000000E+00  0.00000000E+00
  0.00000000E+00  0.00000000E+00  0.00000000E+00
  0.00000000E+00  0.00000000E+00  0.00000000E+00
  0.00000000E+00  0.00000000E+00  0.00000000E+00
  0.00000000E+00  0.00000000E+00  0.00000000E+00
  0.00000000E+00  0.00000000E+00  0.00000000E+00
  0.00000000E+00  0.00000000E+00  0.00000000E+00
  0.00000000E+00  0.00000000E+00  0.00000000E+00
  0.00000000E+00  0.00000000E+00  0.00000000E+00
  0.00000000E+00  0.00000000E+00  0.00000000E+00
  0.00000000E+00  0.00000000E+00  0.00000000E+00
  0.00000000E+00  0.00000000E+00  0.00000000E+00
  0.00000000E+00  0.00000000E+00  0.00000000E+00
  0.00000000E+00  0.00000000E+00  0.00000000E+00
  0.00000000E+00  0.00000000E+00  0.00000000E+00
  0.00000000E+00  0.00000000E+00  0.00000000E+00
  0.00000000E+00  0.00000000E+00  0.00000000E+00
  0.00000000E+00  0.00000000E+00  0.00000000E+00
  0.00000000E+00  0.00000000E+00  0.00000000E+00
  0.00000000E+00  0.00000000E+00  0.00000000E+00
  0.00000000E+00  0.00000000E+00  0.00000000E+00
  0.00000000E+00  0.00000000E+00  0.00000000E+00
  0.00000000E+00  0.00000000E+00  0.00000000E+00
  0.00000000E+00  0.00000000E+00  0.00000000E+00
  0.00000000E+00  0.00000000E+00  0.00000000E+00
  0.00000000E+00  0.00000000E+00  0.00000000E+00
  0.00000000E+00  0.00000000E+00  0.00000000E+00
  0.00000000E+00  0.00000000E+00  0.00000000E+00
  0.00000000E+00  0.00000000E+00  0.00000000E+00
  0.00000000E+00  0.00000000E+00  0.00000000E+00
  0.00000000E+00  0.00000000E+00  0.00000000E+00
  0.00000000E+00  0.00000000E+00  0.00000000E+00
  0.00000000E+00  0.00000000E+00  0.00000000E+00
  0.00000000E+00  0.00000000E+00  0.00000000E+00
  0.00000000E+00  0.00000000E+00  0.00000000E+00
  0.00000000E+00  0.00000000E+00  0.00000000E+00
  0.00000000E+00  0.00000000E+00  0.00000000E+00
  0.00000000E+00  0.00000000E+00  0.00000000E+00
  0.00000000E+00  0.00000000E+00  0.00000000E+00
  0.00000000E+00  0.00000000E+00  0.00000000E+00
  0.00000000E+00  0.00000000E+00  0.00000000E+00
  0.00000000E+00  0.00000000E+00  0.00000000E+00
  0.00000000E+00  0.00000000E+00  0.00000000E+00
  0.00000000E+00  0.00000000E+00  0.00000000E+00
  0.00000000E+00  0.00000000E+00  0.00000000E+00
  0.00000000E+00  0.00000000E+00  0.00000000E+00
  0.00000000E+00  0.00000000E+00  0.00000000E+00
  0.00000000E+00  0.00000000E+00  0.00000000E+00
  0.00000000E+00  0.00000000E+00  0.00000000E+00
  0.00000000E+00  0.00000000E+00  0.00000000E+00
  0.00000000E+00  0.00000000E+00  0.00000000E+00
  0.00000000E+00  0.00000000E+00  0.00000000E+00
