B N C F O                               
   1.00000000000000     
     7.5365500567000003  -13.0537460594369996    0.0000000000000000
     7.5365500567000003   13.0537460594369996    0.0000000000000000
     0.0000000000000000    0.0000000000000000   35.1146643855649998
   B    N    C    F    O 
    36    36     7    13     2
Selective dynamics
Direct
  0.1096341915374047  0.0526838550367179  0.4964014928273954   T   T   T
  0.1096480488577710  0.2193668530114652  0.4965197769707756   T   T   T
  0.1096610065372060  0.3860613936501470  0.4965314744547655   T   T   T
  0.1097054753838040  0.5527303573219347  0.4963093158365502   T   T   T
  0.1096415602871246  0.7193526999470131  0.4964355302540400   T   T   T
  0.1096379914393573  0.8860284928235859  0.4963902759614412   T   T   T
  0.2763058196942067  0.0526973170782180  0.4961741889183168   T   T   T
  0.2762936949798948  0.2193613042455244  0.4961766860911194   T   T   T
  0.2763096842794203  0.3860789880871750  0.4962075274036672   T   T   T
  0.2763044915434152  0.5527863636775152  0.4963059511701736   T   T   T
  0.2762731651723316  0.7192417097695223  0.4962424636861680   T   T   T
  0.2762858876777347  0.8859970175831211  0.4963138659382101   T   T   T
  0.4429480182946401  0.0526753053518426  0.4960302068886380   T   T   T
  0.4429774454045888  0.2193472413843177  0.4954096578919285   T   T   T
  0.4429466455967862  0.3860330722097357  0.4954802342184289   T   T   T
  0.4429769075776546  0.5527489538659296  0.4953377181253061   T   T   T
  0.4428944000709528  0.7192902201743158  0.4961098871572960   T   T   T
  0.4429320548597736  0.8859594291290412  0.4962733598422832   T   T   T
  0.6096130428086225  0.0526649276868158  0.4962247359465068   T   T   T
  0.6095901768748716  0.2193310815459628  0.4955759893481064   T   T   T
  0.6096017786549488  0.3859867967920371  0.4951047236198987   T   T   T
  0.6096115042615308  0.5527188808673823  0.4951239164879812   T   T   T
  0.6096309836007373  0.7193450535906454  0.4955445481614829   T   T   T
  0.6096133708231346  0.8860047045907022  0.4962554828116056   T   T   T
  0.7763104447128424  0.0526998000418926  0.4963335259768079   T   T   T
  0.7762979060948861  0.2193376203976769  0.4963124872114222   T   T   T
  0.7762894126285329  0.3859989870826677  0.4960885746977595   T   T   T
  0.7762768989995257  0.5526857721793830  0.4960114518404513   T   T   T
  0.7762869783677819  0.7193545421036189  0.4959582947086267   T   T   T
  0.7763162982240768  0.8860414838175118  0.4961963553011062   T   T   T
  0.9429880286762691  0.0527091885550431  0.4964070799091632   T   T   T
  0.9429612885056593  0.2193596778835143  0.4964871021568664   T   T   T
  0.9429874096998893  0.3860271241675832  0.4964731557829703   T   T   T
  0.9429766140323267  0.5527042020543100  0.4964282077837082   T   T   T
  0.9429489622623852  0.7193430776074479  0.4963635798760883   T   T   T
  0.9429691763910372  0.8860207215262507  0.4963233267039417   T   T   T
  0.0540970860036987  0.1082501330646224  0.4964697673987871   T   T   T
  0.0540776927344677  0.2749135790188956  0.4965404223051184   T   T   T
  0.0540657777334481  0.4415760718879180  0.4964846349619730   T   T   T
  0.0540571926042820  0.6082408274380398  0.4964331228880655   T   T   T
  0.0540613302153596  0.7749045743845246  0.4964305854722303   T   T   T
  0.0540767043976717  0.9415746484256331  0.4964003560618973   T   T   T
  0.2207496965070334  0.1082511065366976  0.4962713631888072   T   T   T
  0.2207704191877666  0.2749370176615684  0.4964005082282540   T   T   T
  0.2207560921194358  0.4416046421336250  0.4964373057482135   T   T   T
  0.2206832362261986  0.6082187911625131  0.4959068039384161   T   T   T
  0.2207397841314079  0.7748909652152702  0.4963695863671346   T   T   T
  0.2207466808618310  0.9415860743112191  0.4963015309066678   T   T   T
  0.3874139776318116  0.1082570659058902  0.4959041882907660   T   T   T
  0.3874311483331315  0.2749185476476372  0.4957822713796291   T   T   T
  0.3874365382422751  0.4416024943115419  0.4956716644400950   T   T   T
  0.3874316196104920  0.6082302929676325  0.4958563081795525   T   T   T
  0.3873990538953667  0.7748919304341484  0.4962072584886591   T   T   T
  0.3874008480631112  0.9415720161034629  0.4962375109272507   T   T   T
  0.5540601573423590  0.1082329875985609  0.4959713089555981   T   T   T
  0.5540652716460496  0.2748738332480437  0.4947890760139773   T   T   T
  0.5540641896562781  0.4415711927230319  0.4951487031182144   T   T   T
  0.5541222310285329  0.6082693027946511  0.4947386724744531   T   T   T
  0.5540647745794247  0.7748837665517142  0.4960563409305320   T   T   T
  0.5540664673720136  0.9415680481168920  0.4962953389632396   T   T   T
  0.7207359252496899  0.1082398310290274  0.4963071193628454   T   T   T
  0.7207121722772929  0.2748944430320604  0.4960895572901212   T   T   T
  0.7206829712684691  0.4415370089084068  0.4958029355320275   T   T   T
  0.7207174930377167  0.6082213685134837  0.4957279010327569   T   T   T
  0.7207530895332358  0.7749181583402790  0.4959168202813762   T   T   T
  0.7207474775474066  0.9415846143941504  0.4962619194727137   T   T   T
  0.8874196134768947  0.1082502901556366  0.4964024989390083   T   T   T
  0.8873950576197420  0.2749073580340495  0.4964447403301647   T   T   T
  0.8873809702073755  0.4415654986246232  0.4964109417363665   T   T   T
  0.8873663326851825  0.6082149893613179  0.4963733238774128   T   T   T
  0.8873925513603933  0.7748938407013887  0.4962405260493864   T   T   T
  0.8874301938784852  0.9415922782319339  0.4963119780158609   T   T   T
  0.4749635770292131  0.5537949632371943  0.6122033700256118   T   T   T
  0.4751950203782423  0.4515859543647419  0.6173270358192321   T   T   T
  0.3741250866803498  0.5500247585894749  0.6235357359146617   T   T   T
  0.5839524305138872  0.4638703806855762  0.6160187175832698   T   T   T
  0.5838343461693475  0.3617414007251595  0.6106297407498287   T   T   T
  0.6892445550886717  0.3689968027584770  0.6162188549493441   T   T   T
  0.3632938515489869  0.6392774874088533  0.6062141848170849   T   T   T
  0.4926420592876339  0.5802078479237045  0.5747717743220767   T   T   T
  0.5536780424426760  0.6267682686703858  0.6328512487779371   T   T   T
  0.4322590280051239  0.4102638971376233  0.6513908888516009   T   T   T
  0.4180702849319990  0.3858171218104406  0.5893020298186094   T   T   T
  0.6366644647410455  0.5267153011752427  0.5866434131000112   T   T   T
  0.6332481461262839  0.5072460465037938  0.6489256787882456   T   T   T
  0.5173241760313623  0.2917718129764198  0.6356034002233187   T   T   T
  0.5529223561088772  0.3269827090050278  0.5747970952505471   T   T   T
  0.6799510418260449  0.2786142267833129  0.6067385115952343   T   T   T
  0.7597188538936268  0.4416236244706596  0.5935518275922026   T   T   T
  0.7205019966208690  0.3898431312306163  0.6523592550793461   T   T   T
  0.3708295059389618  0.5538046613987125  0.6624694844484131   T   T   T
  0.2952528514649144  0.4567291350150069  0.6126371043848877   T   T   T
  0.4361922024080688  0.7263958192104986  0.6138212520788969   T   T   T
  0.2842869014632615  0.6150155107923428  0.5876088584701521   T   T   T
 
  0.00000000E+00  0.00000000E+00  0.00000000E+00
  0.00000000E+00  0.00000000E+00  0.00000000E+00
  0.00000000E+00  0.00000000E+00  0.00000000E+00
  0.00000000E+00  0.00000000E+00  0.00000000E+00
  0.00000000E+00  0.00000000E+00  0.00000000E+00
  0.00000000E+00  0.00000000E+00  0.00000000E+00
  0.00000000E+00  0.00000000E+00  0.00000000E+00
  0.00000000E+00  0.00000000E+00  0.00000000E+00
  0.00000000E+00  0.00000000E+00  0.00000000E+00
  0.00000000E+00  0.00000000E+00  0.00000000E+00
  0.00000000E+00  0.00000000E+00  0.00000000E+00
  0.00000000E+00  0.00000000E+00  0.00000000E+00
  0.00000000E+00  0.00000000E+00  0.00000000E+00
  0.00000000E+00  0.00000000E+00  0.00000000E+00
  0.00000000E+00  0.00000000E+00  0.00000000E+00
  0.00000000E+00  0.00000000E+00  0.00000000E+00
  0.00000000E+00  0.00000000E+00  0.00000000E+00
  0.00000000E+00  0.00000000E+00  0.00000000E+00
  0.00000000E+00  0.00000000E+00  0.00000000E+00
  0.00000000E+00  0.00000000E+00  0.00000000E+00
  0.00000000E+00  0.00000000E+00  0.00000000E+00
  0.00000000E+00  0.00000000E+00  0.00000000E+00
  0.00000000E+00  0.00000000E+00  0.00000000E+00
  0.00000000E+00  0.00000000E+00  0.00000000E+00
  0.00000000E+00  0.00000000E+00  0.00000000E+00
  0.00000000E+00  0.00000000E+00  0.00000000E+00
  0.00000000E+00  0.00000000E+00  0.00000000E+00
  0.00000000E+00  0.00000000E+00  0.00000000E+00
  0.00000000E+00  0.00000000E+00  0.00000000E+00
  0.00000000E+00  0.00000000E+00  0.00000000E+00
  0.00000000E+00  0.00000000E+00  0.00000000E+00
  0.00000000E+00  0.00000000E+00  0.00000000E+00
  0.00000000E+00  0.00000000E+00  0.00000000E+00
  0.00000000E+00  0.00000000E+00  0.00000000E+00
  0.00000000E+00  0.00000000E+00  0.00000000E+00
  0.00000000E+00  0.00000000E+00  0.00000000E+00
  0.00000000E+00  0.00000000E+00  0.00000000E+00
  0.00000000E+00  0.00000000E+00  0.00000000E+00
  0.00000000E+00  0.00000000E+00  0.00000000E+00
  0.00000000E+00  0.00000000E+00  0.00000000E+00
  0.00000000E+00  0.00000000E+00  0.00000000E+00
  0.00000000E+00  0.00000000E+00  0.00000000E+00
  0.00000000E+00  0.00000000E+00  0.00000000E+00
  0.00000000E+00  0.00000000E+00  0.00000000E+00
  0.00000000E+00  0.00000000E+00  0.00000000E+00
  0.00000000E+00  0.00000000E+00  0.00000000E+00
  0.00000000E+00  0.00000000E+00  0.00000000E+00
  0.00000000E+00  0.00000000E+00  0.00000000E+00
  0.00000000E+00  0.00000000E+00  0.00000000E+00
  0.00000000E+00  0.00000000E+00  0.00000000E+00
  0.00000000E+00  0.00000000E+00  0.00000000E+00
  0.00000000E+00  0.00000000E+00  0.00000000E+00
  0.00000000E+00  0.00000000E+00  0.00000000E+00
  0.00000000E+00  0.00000000E+00  0.00000000E+00
  0.00000000E+00  0.00000000E+00  0.00000000E+00
  0.00000000E+00  0.00000000E+00  0.00000000E+00
  0.00000000E+00  0.00000000E+00  0.00000000E+00
  0.00000000E+00  0.00000000E+00  0.00000000E+00
  0.00000000E+00  0.00000000E+00  0.00000000E+00
  0.00000000E+00  0.00000000E+00  0.00000000E+00
  0.00000000E+00  0.00000000E+00  0.00000000E+00
  0.00000000E+00  0.00000000E+00  0.00000000E+00
  0.00000000E+00  0.00000000E+00  0.00000000E+00
  0.00000000E+00  0.00000000E+00  0.00000000E+00
  0.00000000E+00  0.00000000E+00  0.00000000E+00
  0.00000000E+00  0.00000000E+00  0.00000000E+00
  0.00000000E+00  0.00000000E+00  0.00000000E+00
  0.00000000E+00  0.00000000E+00  0.00000000E+00
  0.00000000E+00  0.00000000E+00  0.00000000E+00
  0.00000000E+00  0.00000000E+00  0.00000000E+00
  0.00000000E+00  0.00000000E+00  0.00000000E+00
  0.00000000E+00  0.00000000E+00  0.00000000E+00
  0.00000000E+00  0.00000000E+00  0.00000000E+00
  0.00000000E+00  0.00000000E+00  0.00000000E+00
  0.00000000E+00  0.00000000E+00  0.00000000E+00
  0.00000000E+00  0.00000000E+00  0.00000000E+00
  0.00000000E+00  0.00000000E+00  0.00000000E+00
  0.00000000E+00  0.00000000E+00  0.00000000E+00
  0.00000000E+00  0.00000000E+00  0.00000000E+00
  0.00000000E+00  0.00000000E+00  0.00000000E+00
  0.00000000E+00  0.00000000E+00  0.00000000E+00
  0.00000000E+00  0.00000000E+00  0.00000000E+00
  0.00000000E+00  0.00000000E+00  0.00000000E+00
  0.00000000E+00  0.00000000E+00  0.00000000E+00
  0.00000000E+00  0.00000000E+00  0.00000000E+00
  0.00000000E+00  0.00000000E+00  0.00000000E+00
  0.00000000E+00  0.00000000E+00  0.00000000E+00
  0.00000000E+00  0.00000000E+00  0.00000000E+00
  0.00000000E+00  0.00000000E+00  0.00000000E+00
  0.00000000E+00  0.00000000E+00  0.00000000E+00
  0.00000000E+00  0.00000000E+00  0.00000000E+00
  0.00000000E+00  0.00000000E+00  0.00000000E+00
  0.00000000E+00  0.00000000E+00  0.00000000E+00
  0.00000000E+00  0.00000000E+00  0.00000000E+00
