B N C F O                               
   1.00000000000000     
     5.0243667044670000   -8.7024973729579997    0.0000000000000000
     5.0243667044670000    8.7024973729579997    0.0000000000000000
     0.0000000000000000    0.0000000000000000   35.1146643855649998
   B    N    C    F    O 
    16    16     3     5     2
Selective dynamics
Direct
  0.1666744179776103  0.0833686590963296  0.5000044494744458   T   T   T
  0.1666511428205482  0.3333652396019744  0.5000360607300607   T   T   T
  0.1666691496304225  0.5834015838860083  0.5000294002261256   T   T   T
  0.1667017495874106  0.8334025131221665  0.4999973094032413   T   T   T
  0.4167104351586133  0.0833801784198798  0.5000148866010150   T   T   T
  0.4166658480611858  0.3333245701092693  0.5000418717825497   T   T   T
  0.4166413542980507  0.5833628983509769  0.5000469629715170   T   T   T
  0.4166931690625120  0.8333957329938642  0.5000364133440058   T   T   T
  0.6667088840803999  0.0833968408083408  0.5000391565721856   T   T   T
  0.6667092916225528  0.3333681064402683  0.5000596150253784   T   T   T
  0.6667188219864641  0.5833836117210680  0.5000655479497524   T   T   T
  0.6667098484214264  0.8334096220801968  0.5000693343253886   T   T   T
  0.9166924638840825  0.0833874941819772  0.5000212168917528   T   T   T
  0.9167019560113232  0.3333895250080019  0.5000327610872901   T   T   T
  0.9167066238706809  0.5833854615800860  0.5000422724835332   T   T   T
  0.9167073228970324  0.8333875547315586  0.5000392465798384   T   T   T
  0.0833588876080569  0.1667371476185693  0.5000096721972511   T   T   T
  0.0833758424880102  0.4167404657546570  0.5000294039110429   T   T   T
  0.0833557779650462  0.6667320648608950  0.5000116019784926   T   T   T
  0.0833512950866364  0.9167248803513104  0.4999935201936196   T   T   T
  0.3333631331150002  0.1667197988991944  0.5000115396435376   T   T   T
  0.3333599428250480  0.4167132412057839  0.5000814072980972   T   T   T
  0.3333702226034987  0.6667168984398231  0.5000468737553092   T   T   T
  0.3333829099894245  0.9167227242445506  0.4999990792081093   T   T   T
  0.5833801305659989  0.1667349811279379  0.5000432851136551   T   T   T
  0.5833404277849397  0.4167248287790883  0.5001111340783666   T   T   T
  0.5833252258456980  0.6666887419983709  0.5001470227393341   T   T   T
  0.5833708704855880  0.9167139887453146  0.5000620076224038   T   T   T
  0.8333689009617729  0.1667220046878910  0.5000209531100950   T   T   T
  0.8333597468100962  0.4167205909763041  0.5000571799783629   T   T   T
  0.8333262209528272  0.6667027249586397  0.5000662570996184   T   T   T
  0.8333453322583750  0.9167095224441368  0.5000454742197107   T   T   T
  0.5603616058571035  0.4706013442320796  0.6728273176996282   T   T   T
  0.5325325218073829  0.4673367746640622  0.6296013737387369   T   T   T
  0.5135185800280766  0.6345351753849329  0.6171888063883699   T   T   T
  0.6931812600232234  0.5944471370163456  0.6823150788560639   T   T   T
  0.5662424305605569  0.3444992943878944  0.6826390604131163   T   T   T
  0.4455357528323276  0.4710407301832760  0.6918993968996858   T   T   T
  0.6501600986966523  0.4770713434195031  0.6100943861492638   T   T   T
  0.4035315450773567  0.3412442077526947  0.6199606376627500   T   T   T
  0.6430228381810323  0.7399277349038016  0.6132778049054224   T   T   T
  0.3777634058512476  0.5904530736126787  0.6166794310825310   T   T   T
 
  0.00000000E+00  0.00000000E+00  0.00000000E+00
  0.00000000E+00  0.00000000E+00  0.00000000E+00
  0.00000000E+00  0.00000000E+00  0.00000000E+00
  0.00000000E+00  0.00000000E+00  0.00000000E+00
  0.00000000E+00  0.00000000E+00  0.00000000E+00
  0.00000000E+00  0.00000000E+00  0.00000000E+00
  0.00000000E+00  0.00000000E+00  0.00000000E+00
  0.00000000E+00  0.00000000E+00  0.00000000E+00
  0.00000000E+00  0.00000000E+00  0.00000000E+00
  0.00000000E+00  0.00000000E+00  0.00000000E+00
  0.00000000E+00  0.00000000E+00  0.00000000E+00
  0.00000000E+00  0.00000000E+00  0.00000000E+00
  0.00000000E+00  0.00000000E+00  0.00000000E+00
  0.00000000E+00  0.00000000E+00  0.00000000E+00
  0.00000000E+00  0.00000000E+00  0.00000000E+00
  0.00000000E+00  0.00000000E+00  0.00000000E+00
  0.00000000E+00  0.00000000E+00  0.00000000E+00
  0.00000000E+00  0.00000000E+00  0.00000000E+00
  0.00000000E+00  0.00000000E+00  0.00000000E+00
  0.00000000E+00  0.00000000E+00  0.00000000E+00
  0.00000000E+00  0.00000000E+00  0.00000000E+00
  0.00000000E+00  0.00000000E+00  0.00000000E+00
  0.00000000E+00  0.00000000E+00  0.00000000E+00
  0.00000000E+00  0.00000000E+00  0.00000000E+00
  0.00000000E+00  0.00000000E+00  0.00000000E+00
  0.00000000E+00  0.00000000E+00  0.00000000E+00
  0.00000000E+00  0.00000000E+00  0.00000000E+00
  0.00000000E+00  0.00000000E+00  0.00000000E+00
  0.00000000E+00  0.00000000E+00  0.00000000E+00
  0.00000000E+00  0.00000000E+00  0.00000000E+00
  0.00000000E+00  0.00000000E+00  0.00000000E+00
  0.00000000E+00  0.00000000E+00  0.00000000E+00
  0.00000000E+00  0.00000000E+00  0.00000000E+00
  0.00000000E+00  0.00000000E+00  0.00000000E+00
  0.00000000E+00  0.00000000E+00  0.00000000E+00
  0.00000000E+00  0.00000000E+00  0.00000000E+00
  0.00000000E+00  0.00000000E+00  0.00000000E+00
  0.00000000E+00  0.00000000E+00  0.00000000E+00
  0.00000000E+00  0.00000000E+00  0.00000000E+00
  0.00000000E+00  0.00000000E+00  0.00000000E+00
  0.00000000E+00  0.00000000E+00  0.00000000E+00
  0.00000000E+00  0.00000000E+00  0.00000000E+00
