B N C F O                               
   1.00000000000000     
     5.0243667044670000   -8.7024973729579997    0.0000000000000000
     5.0243667044670000    8.7024973729579997    0.0000000000000000
     0.0000000000000000    0.0000000000000000   35.1146643855649998
   B    N    C    F    O 
    16    16     3     5     2
Selective dynamics
Direct
  0.1666548647817784  0.0833270802722626  0.5000158007109935   T   T   T
  0.1666467917305457  0.3333259862675939  0.5000383491761361   T   T   T
  0.1666612868781049  0.5833352662895732  0.5000183116840339   T   T   T
  0.1666650960853125  0.8333333226506117  0.5000143498630133   T   T   T
  0.4166656436523904  0.0833252139842761  0.5000185396677370   T   T   T
  0.4166528199225709  0.3333156314107300  0.5000326616630794   T   T   T
  0.4166513387055595  0.5833474498973547  0.5000231365722759   T   T   T
  0.4166667894749844  0.8333371260050411  0.5000250720078737   T   T   T
  0.6666708064371322  0.0833315022882155  0.5000239694723069   T   T   T
  0.6666731211683298  0.3333249939158793  0.5000386683573707   T   T   T
  0.6666813914821373  0.5833478114021673  0.5000366586912945   T   T   T
  0.6666671051549186  0.8333430790658907  0.5000500453312917   T   T   T
  0.9166587134048825  0.0833321930797412  0.5000210279094869   T   T   T
  0.9166648162187871  0.3333279816089469  0.5000189663515063   T   T   T
  0.9166720738421213  0.5833362066790299  0.5000271403326731   T   T   T
  0.9166652305669767  0.8333396716174015  0.5000309344402900   T   T   T
  0.0833285836708197  0.1666663105017432  0.5000089958818918   T   T   T
  0.0833309192439126  0.4166671696118442  0.5000131984115269   T   T   T
  0.0833315965263450  0.6666684597308602  0.5000050504175276   T   T   T
  0.0833299071538888  0.9166659818274306  0.5000027749838023   T   T   T
  0.3333296293607987  0.1666633182058904  0.5000097157835043   T   T   T
  0.3333362146770038  0.4166708471355959  0.5000486477262749   T   T   T
  0.3333280114975617  0.6666706525671524  0.4999895021631491   T   T   T
  0.3333317724195723  0.9166666681768914  0.5000045828584181   T   T   T
  0.5833339267796349  0.1666664748037135  0.5000131064399421   T   T   T
  0.5833279396803315  0.4166704479969646  0.5000564702947791   T   T   T
  0.5833177799098966  0.6666522489161806  0.5000405498196993   T   T   T
  0.5833334508173982  0.9166652758426099  0.5000233514968108   T   T   T
  0.8333320123682334  0.1666670059859099  0.5000009760268509   T   T   T
  0.8333313269748632  0.4166666475906637  0.5000184519398365   T   T   T
  0.8333313937360163  0.6666671773035409  0.5000218223514303   T   T   T
  0.8333247973158755  0.9166637443869859  0.5000213133291317   T   T   T
  0.5588239843584263  0.4705463286836346  0.6730747888182613   T   T   T
  0.5306138789151769  0.4744154400142074  0.6301778112859097   T   T   T
  0.5140166086093124  0.6132262422846547  0.6177742624703310   T   T   T
  0.6915501620730992  0.5943931565719581  0.6834894251254183   T   T   T
  0.5659495591482520  0.3444301537876333  0.6822657464743820   T   T   T
  0.4438217205693277  0.4687697781860157  0.6930446147846494   T   T   T
  0.6506738866772281  0.4756838249673654  0.6116452360210308   T   T   T
  0.4013204686263969  0.3394336337727528  0.6215270108656188   T   T   T
  0.6360338903366448  0.7364321817013929  0.6122497708239183   T   T   T
  0.3808503133024018  0.5912327511806491  0.6149244430335419   T   T   T
 
  0.00000000E+00  0.00000000E+00  0.00000000E+00
  0.00000000E+00  0.00000000E+00  0.00000000E+00
  0.00000000E+00  0.00000000E+00  0.00000000E+00
  0.00000000E+00  0.00000000E+00  0.00000000E+00
  0.00000000E+00  0.00000000E+00  0.00000000E+00
  0.00000000E+00  0.00000000E+00  0.00000000E+00
  0.00000000E+00  0.00000000E+00  0.00000000E+00
  0.00000000E+00  0.00000000E+00  0.00000000E+00
  0.00000000E+00  0.00000000E+00  0.00000000E+00
  0.00000000E+00  0.00000000E+00  0.00000000E+00
  0.00000000E+00  0.00000000E+00  0.00000000E+00
  0.00000000E+00  0.00000000E+00  0.00000000E+00
  0.00000000E+00  0.00000000E+00  0.00000000E+00
  0.00000000E+00  0.00000000E+00  0.00000000E+00
  0.00000000E+00  0.00000000E+00  0.00000000E+00
  0.00000000E+00  0.00000000E+00  0.00000000E+00
  0.00000000E+00  0.00000000E+00  0.00000000E+00
  0.00000000E+00  0.00000000E+00  0.00000000E+00
  0.00000000E+00  0.00000000E+00  0.00000000E+00
  0.00000000E+00  0.00000000E+00  0.00000000E+00
  0.00000000E+00  0.00000000E+00  0.00000000E+00
  0.00000000E+00  0.00000000E+00  0.00000000E+00
  0.00000000E+00  0.00000000E+00  0.00000000E+00
  0.00000000E+00  0.00000000E+00  0.00000000E+00
  0.00000000E+00  0.00000000E+00  0.00000000E+00
  0.00000000E+00  0.00000000E+00  0.00000000E+00
  0.00000000E+00  0.00000000E+00  0.00000000E+00
  0.00000000E+00  0.00000000E+00  0.00000000E+00
  0.00000000E+00  0.00000000E+00  0.00000000E+00
  0.00000000E+00  0.00000000E+00  0.00000000E+00
  0.00000000E+00  0.00000000E+00  0.00000000E+00
  0.00000000E+00  0.00000000E+00  0.00000000E+00
  0.00000000E+00  0.00000000E+00  0.00000000E+00
  0.00000000E+00  0.00000000E+00  0.00000000E+00
  0.00000000E+00  0.00000000E+00  0.00000000E+00
  0.00000000E+00  0.00000000E+00  0.00000000E+00
  0.00000000E+00  0.00000000E+00  0.00000000E+00
  0.00000000E+00  0.00000000E+00  0.00000000E+00
  0.00000000E+00  0.00000000E+00  0.00000000E+00
  0.00000000E+00  0.00000000E+00  0.00000000E+00
  0.00000000E+00  0.00000000E+00  0.00000000E+00
  0.00000000E+00  0.00000000E+00  0.00000000E+00
