B N C F O                               
   1.00000000000000     
     5.0243667044670000   -8.7024973729579997    0.0000000000000000
     5.0243667044670000    8.7024973729579997    0.0000000000000000
     0.0000000000000000    0.0000000000000000   35.1146643855649998
   B    N    C    F    O 
    16    16     3     5     2
Selective dynamics
Direct
  0.1666389991662295  0.0833344966423015  0.5000578811065746   T   T   T
  0.1666186249419448  0.3333269214301031  0.5000817708109047   T   T   T
  0.1666373495824910  0.5833397975137348  0.5000666577972613   T   T   T
  0.1666465156573284  0.8333415149364711  0.5000500948798913   T   T   T
  0.4166509154671336  0.0833312078272863  0.5000631078260216   T   T   T
  0.4166341549689574  0.3333143503045565  0.5000797592910913   T   T   T
  0.4166248651843372  0.5833497477804961  0.5000819603137098   T   T   T
  0.4166485218445870  0.8333517980067167  0.5000808132979440   T   T   T
  0.6666597398629084  0.0833460371958840  0.5000821970972144   T   T   T
  0.6666623688543233  0.3333271128759315  0.5000975724270328   T   T   T
  0.6666770514376734  0.5833568617648101  0.5001060243983365   T   T   T
  0.6666594558269326  0.8333694963891697  0.5001255614236793   T   T   T
  0.9166446434456093  0.0833440680929425  0.5000775073050071   T   T   T
  0.9166481317054279  0.3333331408391426  0.5000707645449218   T   T   T
  0.9166599898035339  0.5833392555847660  0.5000783337400116   T   T   T
  0.9166561140439221  0.8333503237671055  0.5000881525621588   T   T   T
  0.0833150519602166  0.1666766742086065  0.5000574143750327   T   T   T
  0.0833194187468244  0.4166773850303759  0.5000610249475753   T   T   T
  0.0833157736649831  0.6666739189662767  0.5000466077518033   T   T   T
  0.0833122541029520  0.9166749042268614  0.5000474546988120   T   T   T
  0.3333181543265071  0.1666761913756771  0.5000562146251080   T   T   T
  0.3333238976181695  0.4166825875022017  0.5001010824994315   T   T   T
  0.3333169873503898  0.6666762593868256  0.5000611157939784   T   T   T
  0.3333158748467716  0.9166732192606556  0.5000453791751636   T   T   T
  0.5833170270794501  0.1666749389144688  0.5000699505270180   T   T   T
  0.5833117758322260  0.4166847910834738  0.5001262755567436   T   T   T
  0.5832986920108520  0.6666596936826451  0.5001440698322150   T   T   T
  0.5833139559843541  0.9166685274938683  0.5000886676193148   T   T   T
  0.8333147407900829  0.1666727520747960  0.5000634453863745   T   T   T
  0.8333129462364356  0.4166738969589451  0.5000781575709511   T   T   T
  0.8333110477031391  0.6666729681238686  0.5000888251230284   T   T   T
  0.8333033225660240  0.9166658849872363  0.5000909928166851   T   T   T
  0.5587729745906566  0.4703463293686607  0.6730790396336999   T   T   T
  0.5307682294924406  0.4741361320592630  0.6301361354614835   T   T   T
  0.5143848039666188  0.6123581526660350  0.6175196027110326   T   T   T
  0.6911190420269813  0.5945000651379551  0.6834887901905586   T   T   T
  0.5663176083095112  0.3444127446445840  0.6820612321426028   T   T   T
  0.4436743122554936  0.4681592447849598  0.6930228666110407   T   T   T
  0.6509094526748657  0.4758618211880781  0.6116618378412038   T   T   T
  0.4011431051180879  0.3399453315795439  0.6214213510596400   T   T   T
  0.6351318868762579  0.7361178977359821  0.6113452388621715   T   T   T
  0.3819418463313125  0.5924739947757017  0.6146343202245574   T   T   T
 
  0.00000000E+00  0.00000000E+00  0.00000000E+00
  0.00000000E+00  0.00000000E+00  0.00000000E+00
  0.00000000E+00  0.00000000E+00  0.00000000E+00
  0.00000000E+00  0.00000000E+00  0.00000000E+00
  0.00000000E+00  0.00000000E+00  0.00000000E+00
  0.00000000E+00  0.00000000E+00  0.00000000E+00
  0.00000000E+00  0.00000000E+00  0.00000000E+00
  0.00000000E+00  0.00000000E+00  0.00000000E+00
  0.00000000E+00  0.00000000E+00  0.00000000E+00
  0.00000000E+00  0.00000000E+00  0.00000000E+00
  0.00000000E+00  0.00000000E+00  0.00000000E+00
  0.00000000E+00  0.00000000E+00  0.00000000E+00
  0.00000000E+00  0.00000000E+00  0.00000000E+00
  0.00000000E+00  0.00000000E+00  0.00000000E+00
  0.00000000E+00  0.00000000E+00  0.00000000E+00
  0.00000000E+00  0.00000000E+00  0.00000000E+00
  0.00000000E+00  0.00000000E+00  0.00000000E+00
  0.00000000E+00  0.00000000E+00  0.00000000E+00
  0.00000000E+00  0.00000000E+00  0.00000000E+00
  0.00000000E+00  0.00000000E+00  0.00000000E+00
  0.00000000E+00  0.00000000E+00  0.00000000E+00
  0.00000000E+00  0.00000000E+00  0.00000000E+00
  0.00000000E+00  0.00000000E+00  0.00000000E+00
  0.00000000E+00  0.00000000E+00  0.00000000E+00
  0.00000000E+00  0.00000000E+00  0.00000000E+00
  0.00000000E+00  0.00000000E+00  0.00000000E+00
  0.00000000E+00  0.00000000E+00  0.00000000E+00
  0.00000000E+00  0.00000000E+00  0.00000000E+00
  0.00000000E+00  0.00000000E+00  0.00000000E+00
  0.00000000E+00  0.00000000E+00  0.00000000E+00
  0.00000000E+00  0.00000000E+00  0.00000000E+00
  0.00000000E+00  0.00000000E+00  0.00000000E+00
  0.00000000E+00  0.00000000E+00  0.00000000E+00
  0.00000000E+00  0.00000000E+00  0.00000000E+00
  0.00000000E+00  0.00000000E+00  0.00000000E+00
  0.00000000E+00  0.00000000E+00  0.00000000E+00
  0.00000000E+00  0.00000000E+00  0.00000000E+00
  0.00000000E+00  0.00000000E+00  0.00000000E+00
  0.00000000E+00  0.00000000E+00  0.00000000E+00
  0.00000000E+00  0.00000000E+00  0.00000000E+00
  0.00000000E+00  0.00000000E+00  0.00000000E+00
  0.00000000E+00  0.00000000E+00  0.00000000E+00
