B N C F O                               
   1.00000000000000     
     5.0243667044670000   -8.7024973729579997    0.0000000000000000
     5.0243667044670000    8.7024973729579997    0.0000000000000000
     0.0000000000000000    0.0000000000000000   35.1146643855649998
   B    N    C    F    O 
    16    16     3     5     2
Selective dynamics
Direct
  0.1666376966964820  0.0833326384949240  0.5000599467790912   T   T   T
  0.1666160889743099  0.3333250401827357  0.5000822648632948   T   T   T
  0.1666302126750384  0.5833375105928259  0.5000684441154447   T   T   T
  0.1666473386842690  0.8333430567087243  0.5000535989322163   T   T   T
  0.4166487688552047  0.0833323983860231  0.5000644765540108   T   T   T
  0.4166318178579465  0.3333109010278773  0.5000730260096232   T   T   T
  0.4166202256885778  0.5833477334165229  0.5000685141490759   T   T   T
  0.4166458568905291  0.8333550893655101  0.5000810640470046   T   T   T
  0.6666603082510320  0.0833507830458363  0.5000848716654472   T   T   T
  0.6666625956090564  0.3333266784185232  0.5000981765551511   T   T   T
  0.6666798098703239  0.5833524098089007  0.5000958383079097   T   T   T
  0.6666626527879608  0.8333757450959367  0.5001199602638396   T   T   T
  0.9166447680555775  0.0833477775475035  0.5000803254958482   T   T   T
  0.9166447858267790  0.3333322399656540  0.5000736747552100   T   T   T
  0.9166590556978431  0.5833394748186475  0.5000796673372591   T   T   T
  0.9166590992778639  0.8333532867425716  0.5000891416108280   T   T   T
  0.0833125696018951  0.1666747263220683  0.5000633064619230   T   T   T
  0.0833143243616028  0.4166748429941365  0.5000668575515960   T   T   T
  0.0833139932444163  0.6666754989571954  0.5000527615304601   T   T   T
  0.0833136672412344  0.9166751846265274  0.5000526050769858   T   T   T
  0.3333132705554152  0.1666718159684994  0.5000608668144632   T   T   T
  0.3333222840644560  0.4166811639856702  0.5001081760681373   T   T   T
  0.3333123691428975  0.6666769912570529  0.5000711077180212   T   T   T
  0.3333128395891508  0.9166752986933235  0.5000512164602050   T   T   T
  0.5833165454424118  0.1666759133653803  0.5000754882546700   T   T   T
  0.5833108168609834  0.4166822482497682  0.5001335905156501   T   T   T
  0.5832996387253042  0.6666603090421489  0.5001622124826897   T   T   T
  0.5833138363702329  0.9166720902521384  0.5000972753034901   T   T   T
  0.8333146958161380  0.1666750477724890  0.5000686566165329   T   T   T
  0.8333130383426705  0.4166738673682600  0.5000827379969787   T   T   T
  0.8333146371188301  0.6666750936466475  0.5000951351635627   T   T   T
  0.8333070003749288  0.9166703043383805  0.5000983368876344   T   T   T
  0.5588049676331696  0.4702958799943118  0.6731601755955333   T   T   T
  0.5308247008535212  0.4736483663619839  0.6301797392539139   T   T   T
  0.5145224991329780  0.6113747494963554  0.6175786177149871   T   T   T
  0.6911573849715126  0.5946086336115185  0.6834471995085738   T   T   T
  0.5663480817753457  0.3444415749751316  0.6820428992074928   T   T   T
  0.4435179832438866  0.4680953823725043  0.6929871830594876   T   T   T
  0.6509693595302705  0.4760444525584107  0.6116491953722619   T   T   T
  0.4010405022537853  0.3400729628059193  0.6214029263348485   T   T   T
  0.6341547748577469  0.7361110223706294  0.6112503176992284   T   T   T
  0.3828547614513793  0.5936062531638029  0.6145736757684183   T   T   T
 
  0.00000000E+00  0.00000000E+00  0.00000000E+00
  0.00000000E+00  0.00000000E+00  0.00000000E+00
  0.00000000E+00  0.00000000E+00  0.00000000E+00
  0.00000000E+00  0.00000000E+00  0.00000000E+00
  0.00000000E+00  0.00000000E+00  0.00000000E+00
  0.00000000E+00  0.00000000E+00  0.00000000E+00
  0.00000000E+00  0.00000000E+00  0.00000000E+00
  0.00000000E+00  0.00000000E+00  0.00000000E+00
  0.00000000E+00  0.00000000E+00  0.00000000E+00
  0.00000000E+00  0.00000000E+00  0.00000000E+00
  0.00000000E+00  0.00000000E+00  0.00000000E+00
  0.00000000E+00  0.00000000E+00  0.00000000E+00
  0.00000000E+00  0.00000000E+00  0.00000000E+00
  0.00000000E+00  0.00000000E+00  0.00000000E+00
  0.00000000E+00  0.00000000E+00  0.00000000E+00
  0.00000000E+00  0.00000000E+00  0.00000000E+00
  0.00000000E+00  0.00000000E+00  0.00000000E+00
  0.00000000E+00  0.00000000E+00  0.00000000E+00
  0.00000000E+00  0.00000000E+00  0.00000000E+00
  0.00000000E+00  0.00000000E+00  0.00000000E+00
  0.00000000E+00  0.00000000E+00  0.00000000E+00
  0.00000000E+00  0.00000000E+00  0.00000000E+00
  0.00000000E+00  0.00000000E+00  0.00000000E+00
  0.00000000E+00  0.00000000E+00  0.00000000E+00
  0.00000000E+00  0.00000000E+00  0.00000000E+00
  0.00000000E+00  0.00000000E+00  0.00000000E+00
  0.00000000E+00  0.00000000E+00  0.00000000E+00
  0.00000000E+00  0.00000000E+00  0.00000000E+00
  0.00000000E+00  0.00000000E+00  0.00000000E+00
  0.00000000E+00  0.00000000E+00  0.00000000E+00
  0.00000000E+00  0.00000000E+00  0.00000000E+00
  0.00000000E+00  0.00000000E+00  0.00000000E+00
  0.00000000E+00  0.00000000E+00  0.00000000E+00
  0.00000000E+00  0.00000000E+00  0.00000000E+00
  0.00000000E+00  0.00000000E+00  0.00000000E+00
  0.00000000E+00  0.00000000E+00  0.00000000E+00
  0.00000000E+00  0.00000000E+00  0.00000000E+00
  0.00000000E+00  0.00000000E+00  0.00000000E+00
  0.00000000E+00  0.00000000E+00  0.00000000E+00
  0.00000000E+00  0.00000000E+00  0.00000000E+00
  0.00000000E+00  0.00000000E+00  0.00000000E+00
  0.00000000E+00  0.00000000E+00  0.00000000E+00
