B N C F O                               
   1.00000000000000     
     7.5365500567000003  -13.0537460594369996    0.0000000000000000
     7.5365500567000003   13.0537460594369996    0.0000000000000000
     0.0000000000000000    0.0000000000000000   35.1146643855649998
   B    N    C    F    O 
    36    36     4     7     2
Selective dynamics
Direct
  0.1109344691478995  0.0554715119968563  0.5001771931348244   T   T   T
  0.1109451916660049  0.2221358007957619  0.4997516707421283   T   T   T
  0.1109587729857608  0.3888065668262612  0.4998426900755035   T   T   T
  0.1109584675519102  0.5554580677374403  0.5004017309619044   T   T   T
  0.1109661305931340  0.7221480625202830  0.5006346435561468   T   T   T
  0.1109498174600887  0.8888147682779390  0.5005002172205337   T   T   T
  0.2776492928279950  0.0555562307076158  0.5001751558915046   T   T   T
  0.2776366983943461  0.2221857623774426  0.4990124462823502   T   T   T
  0.2776332601121467  0.3888077224364821  0.4980020887372660   T   T   T
  0.2776272680679952  0.5554676902421676  0.4991412856197925   T   T   T
  0.2776094824955848  0.7221453976377106  0.5002902625767973   T   T   T
  0.2776235651608019  0.8888476164029981  0.5006771162476085   T   T   T
  0.4442575909508903  0.0555864058413320  0.5003471656526983   T   T   T
  0.4443387306054305  0.2223219841084756  0.4991583828299824   T   T   T
  0.4442482489737287  0.3888258670578253  0.4975689924864497   T   T   T
  0.4442152284810348  0.5553994776448192  0.4972871229008859   T   T   T
  0.4442537554210091  0.7221020325715841  0.4993380900311664   T   T   T
  0.4442760288478382  0.8888422208638787  0.5004821688586532   T   T   T
  0.6108949721245835  0.0555123401296669  0.5003559943660463   T   T   T
  0.6109258925997807  0.2222615353208823  0.4994261198368548   T   T   T
  0.6109314168672810  0.3888772407030814  0.4986510794901235   T   T   T
  0.6108827832068329  0.5554212362327036  0.4979375959741503   T   T   T
  0.6108565673785122  0.7220269250514519  0.4986946724043975   T   T   T
  0.6109038156304720  0.8887856207371030  0.5001167160058273   T   T   T
  0.7775649798237794  0.0554569631460851  0.5004425687278911   T   T   T
  0.7775707633214779  0.2221752923613067  0.5000205963753004   T   T   T
  0.7775639828135965  0.3888388046897191  0.4993882745824365   T   T   T
  0.7775287393711778  0.5553932077208970  0.4991682812267868   T   T   T
  0.7775445109414321  0.7220475463900939  0.4994034400093668   T   T   T
  0.7775455096119046  0.8887158744109698  0.5001176145619155   T   T   T
  0.9442403696791644  0.0554377718034615  0.5004374742516262   T   T   T
  0.9442413486522625  0.2221110610073538  0.5003404286435469   T   T   T
  0.9442631379020838  0.3888058644059598  0.5003036070549527   T   T   T
  0.9442509109345281  0.5554648708087910  0.5002634061217961   T   T   T
  0.9442483372425485  0.7220781654353985  0.5001754723354637   T   T   T
  0.9442451067673474  0.8887488135168482  0.5002941142561141   T   T   T
  0.0553529078097128  0.1110082167122641  0.5002062132977159   T   T   T
  0.0553621033007943  0.2776774194963139  0.5000377619807210   T   T   T
  0.0553943463410960  0.4443531342030766  0.5003873513903372   T   T   T
  0.0553919836229113  0.6110191175876878  0.5006261188935071   T   T   T
  0.0553888751394211  0.7776857407630189  0.5005391555580800   T   T   T
  0.0553661265501404  0.9443442226797103  0.5004132458642161   T   T   T
  0.2220361376860538  0.1110582821915358  0.4998586487561241   T   T   T
  0.2220215161428953  0.2776942470307091  0.4988648757491632   T   T   T
  0.2220566854247394  0.4443591777605462  0.4989328625717491   T   T   T
  0.2220680138384381  0.6110199497777273  0.5000545375915948   T   T   T
  0.2220752548784475  0.7777204227511660  0.5006785237595111   T   T   T
  0.2220696851479360  0.9444060070116223  0.5005642510918307   T   T   T
  0.3887292592610763  0.1111534037445310  0.5000204729156437   T   T   T
  0.3886726028114396  0.2777355885980271  0.4984144606539616   T   T   T
  0.3886075163005955  0.4443102573389837  0.4966068648627839   T   T   T
  0.3887127165538615  0.6110072741061074  0.4985084034808906   T   T   T
  0.3887212390951618  0.7776966898953575  0.5001232876958213   T   T   T
  0.3887321453461183  0.9444313043406467  0.5007029499234861   T   T   T
  0.5553715299188582  0.1111083111594624  0.5001317800476386   T   T   T
  0.5554033677148666  0.2777672648828826  0.4987394836267285   T   T   T
  0.5553144026103496  0.4443925946745679  0.4979950678936262   T   T   T
  0.5552959869518688  0.6109980554934893  0.4973608814921064   T   T   T
  0.5553576402553304  0.7776615307205006  0.4993843118097701   T   T   T
  0.5553683518574459  0.9443760723851469  0.5004975815754094   T   T   T
  0.7220130616050469  0.1110371181112058  0.5002869991778454   T   T   T
  0.7220526063089778  0.2777221766384059  0.4994500292577300   T   T   T
  0.7220717841413631  0.4443714410705155  0.4986747795086046   T   T   T
  0.7220129605059498  0.6110034189512348  0.4987538187147678   T   T   T
  0.7219724747293910  0.7776042025186527  0.4994568160576236   T   T   T
  0.7220068721998061  0.9443190823448049  0.5003244134786513   T   T   T
  0.8886795064276996  0.1109943079159592  0.5005350967900597   T   T   T
  0.8886927313384660  0.2776854941781224  0.5002616543824132   T   T   T
  0.8887009436862812  0.4443524115114457  0.5000821686246795   T   T   T
  0.8886851927784107  0.6109946878942765  0.4999464761556567   T   T   T
  0.8886719305523343  0.7776307718072246  0.5000048840367413   T   T   T
  0.8886720053106174  0.9443009869883880  0.5004002599647848   T   T   T
  0.4544585075883489  0.5896130817252825  0.6224246455508933   T   T   T
  0.5000261346431287  0.5299376075848912  0.6026540226866288   T   T   T
  0.5338051712659819  0.4687472373602475  0.6278028299029685   T   T   T
  0.5715364436752353  0.4061079836149446  0.6041931490992312   T   T   T
  0.3683462299698803  0.5266083994745330  0.6412809770873906   T   T   T
  0.5216133655779203  0.6592170852175414  0.6467652290794916   T   T   T
  0.4315426315135014  0.6389263434267036  0.5956520830310836   T   T   T
  0.4273545502620095  0.4641125545202698  0.5779268789843641   T   T   T
  0.5821671342205548  0.5996259508370514  0.5823012715662799   T   T   T
  0.6093878806260875  0.5369266775803112  0.6514183600406369   T   T   T
  0.4525751275737164  0.4057570612992336  0.6504358010640061   T   T   T
  0.5047398330654715  0.3163594922741453  0.5966822204978115   T   T   T
  0.6639453876088695  0.4538857517189214  0.5953957888284336   T   T   T
 
  0.00000000E+00  0.00000000E+00  0.00000000E+00
  0.00000000E+00  0.00000000E+00  0.00000000E+00
  0.00000000E+00  0.00000000E+00  0.00000000E+00
  0.00000000E+00  0.00000000E+00  0.00000000E+00
  0.00000000E+00  0.00000000E+00  0.00000000E+00
  0.00000000E+00  0.00000000E+00  0.00000000E+00
  0.00000000E+00  0.00000000E+00  0.00000000E+00
  0.00000000E+00  0.00000000E+00  0.00000000E+00
  0.00000000E+00  0.00000000E+00  0.00000000E+00
  0.00000000E+00  0.00000000E+00  0.00000000E+00
  0.00000000E+00  0.00000000E+00  0.00000000E+00
  0.00000000E+00  0.00000000E+00  0.00000000E+00
  0.00000000E+00  0.00000000E+00  0.00000000E+00
  0.00000000E+00  0.00000000E+00  0.00000000E+00
  0.00000000E+00  0.00000000E+00  0.00000000E+00
  0.00000000E+00  0.00000000E+00  0.00000000E+00
  0.00000000E+00  0.00000000E+00  0.00000000E+00
  0.00000000E+00  0.00000000E+00  0.00000000E+00
  0.00000000E+00  0.00000000E+00  0.00000000E+00
  0.00000000E+00  0.00000000E+00  0.00000000E+00
  0.00000000E+00  0.00000000E+00  0.00000000E+00
  0.00000000E+00  0.00000000E+00  0.00000000E+00
  0.00000000E+00  0.00000000E+00  0.00000000E+00
  0.00000000E+00  0.00000000E+00  0.00000000E+00
  0.00000000E+00  0.00000000E+00  0.00000000E+00
  0.00000000E+00  0.00000000E+00  0.00000000E+00
  0.00000000E+00  0.00000000E+00  0.00000000E+00
  0.00000000E+00  0.00000000E+00  0.00000000E+00
  0.00000000E+00  0.00000000E+00  0.00000000E+00
  0.00000000E+00  0.00000000E+00  0.00000000E+00
  0.00000000E+00  0.00000000E+00  0.00000000E+00
  0.00000000E+00  0.00000000E+00  0.00000000E+00
  0.00000000E+00  0.00000000E+00  0.00000000E+00
  0.00000000E+00  0.00000000E+00  0.00000000E+00
  0.00000000E+00  0.00000000E+00  0.00000000E+00
  0.00000000E+00  0.00000000E+00  0.00000000E+00
  0.00000000E+00  0.00000000E+00  0.00000000E+00
  0.00000000E+00  0.00000000E+00  0.00000000E+00
  0.00000000E+00  0.00000000E+00  0.00000000E+00
  0.00000000E+00  0.00000000E+00  0.00000000E+00
  0.00000000E+00  0.00000000E+00  0.00000000E+00
  0.00000000E+00  0.00000000E+00  0.00000000E+00
  0.00000000E+00  0.00000000E+00  0.00000000E+00
  0.00000000E+00  0.00000000E+00  0.00000000E+00
  0.00000000E+00  0.00000000E+00  0.00000000E+00
  0.00000000E+00  0.00000000E+00  0.00000000E+00
  0.00000000E+00  0.00000000E+00  0.00000000E+00
  0.00000000E+00  0.00000000E+00  0.00000000E+00
  0.00000000E+00  0.00000000E+00  0.00000000E+00
  0.00000000E+00  0.00000000E+00  0.00000000E+00
  0.00000000E+00  0.00000000E+00  0.00000000E+00
  0.00000000E+00  0.00000000E+00  0.00000000E+00
  0.00000000E+00  0.00000000E+00  0.00000000E+00
  0.00000000E+00  0.00000000E+00  0.00000000E+00
  0.00000000E+00  0.00000000E+00  0.00000000E+00
  0.00000000E+00  0.00000000E+00  0.00000000E+00
  0.00000000E+00  0.00000000E+00  0.00000000E+00
  0.00000000E+00  0.00000000E+00  0.00000000E+00
  0.00000000E+00  0.00000000E+00  0.00000000E+00
  0.00000000E+00  0.00000000E+00  0.00000000E+00
  0.00000000E+00  0.00000000E+00  0.00000000E+00
  0.00000000E+00  0.00000000E+00  0.00000000E+00
  0.00000000E+00  0.00000000E+00  0.00000000E+00
  0.00000000E+00  0.00000000E+00  0.00000000E+00
  0.00000000E+00  0.00000000E+00  0.00000000E+00
  0.00000000E+00  0.00000000E+00  0.00000000E+00
  0.00000000E+00  0.00000000E+00  0.00000000E+00
  0.00000000E+00  0.00000000E+00  0.00000000E+00
  0.00000000E+00  0.00000000E+00  0.00000000E+00
  0.00000000E+00  0.00000000E+00  0.00000000E+00
  0.00000000E+00  0.00000000E+00  0.00000000E+00
  0.00000000E+00  0.00000000E+00  0.00000000E+00
  0.00000000E+00  0.00000000E+00  0.00000000E+00
  0.00000000E+00  0.00000000E+00  0.00000000E+00
  0.00000000E+00  0.00000000E+00  0.00000000E+00
  0.00000000E+00  0.00000000E+00  0.00000000E+00
  0.00000000E+00  0.00000000E+00  0.00000000E+00
  0.00000000E+00  0.00000000E+00  0.00000000E+00
  0.00000000E+00  0.00000000E+00  0.00000000E+00
  0.00000000E+00  0.00000000E+00  0.00000000E+00
  0.00000000E+00  0.00000000E+00  0.00000000E+00
  0.00000000E+00  0.00000000E+00  0.00000000E+00
  0.00000000E+00  0.00000000E+00  0.00000000E+00
  0.00000000E+00  0.00000000E+00  0.00000000E+00
  0.00000000E+00  0.00000000E+00  0.00000000E+00
