B N                                     
   1.00000000000000     
     5.0243667044670000   -8.7024973729579997    0.0000000000000000
     5.0243667044670000    8.7024973729579997    0.0000000000000000
     0.0000000000000000    0.0000000000000000   35.1146643855649998
   B    N 
    15    17
Selective dynamics
Direct
  0.1666823597040592  0.0833640279311417  0.5000000000000000   T   T   T
  0.1674917944010435  0.3349135776029217  0.5000000000000000   T   T   T
  0.1674941688742648  0.5825795528258378  0.5000000000000000   T   T   T
  0.1666828091839050  0.8333181892270987  0.5000000000000000   T   T   T
  0.4166283958921288  0.0833135788967068  0.5000000000000000   T   T   T
  0.4174204491078601  0.3349131536084979  0.5000000000000000   T   T   T
  0.4174214455851729  0.8325068295367388  0.5000000000000000   T   T   T
  0.6666598542117304  0.0833209764938401  0.5000000000000000   T   T   T
  0.6666588032960241  0.3333421951149724  0.5000000000000000   T   T   T
  0.6650878448024986  0.5825805493031365  0.5000000000000000   T   T   T
  0.6650874208080749  0.8325092040099531  0.5000000000000000   T   T   T
  0.9166862605071256  0.0833147379038710  0.5000000000000000   T   T   T
  0.9166800219171565  0.3333411441992661  0.5000000000000000   T   T   T
  0.9166874195142969  0.5833726025188748  0.5000000000000000   T   T   T
  0.9166369704798548  0.8333186387069373  0.5000000000000000   T   T   T
  0.4166681610535957  0.5833328373574079  0.5000000000000000   T   T   T
  0.0843696990644816  0.1674980511369242  0.5000000000000000   T   T   T
  0.0830717266035449  0.4165361330802465  0.5000000000000000   T   T   T
  0.0843709522606224  0.6668718857864053  0.5000000000000000   T   T   T
  0.0833340704616245  0.9166669279493720  0.5000000000000000   T   T   T
  0.3331283653847089  0.1674971141070966  0.5000000000000000   T   T   T
  0.3343178832938469  0.4186369918496574  0.5000000000000000   T   T   T
  0.3343204362670029  0.6656805621439936  0.5000000000000000   T   T   T
  0.3331291126245912  0.9156300461503812  0.5000000000000000   T   T   T
  0.5832049905661506  0.1666035230386099  0.5000000000000000   T   T   T
  0.5813640065613392  0.6656831151171497  0.5000000000000000   T   T   T
  0.5834648653307501  0.9169292718074517  0.5000000000000000   T   T   T
  0.8333979179148894  0.1666030804961071  0.5000000000000000   T   T   T
  0.8333974753723937  0.4167960078448459  0.5000000000000000   T   T   T
  0.8325038843039071  0.6668726330262876  0.5000000000000000   T   T   T
  0.8325029472740724  0.9156312993465149  0.5000000000000000   T   T   T
  0.5834634619533267  0.4165375364576698  0.5000000000000000   T   T   T
 
  0.00000000E+00  0.00000000E+00  0.00000000E+00
  0.00000000E+00  0.00000000E+00  0.00000000E+00
  0.00000000E+00  0.00000000E+00  0.00000000E+00
  0.00000000E+00  0.00000000E+00  0.00000000E+00
  0.00000000E+00  0.00000000E+00  0.00000000E+00
  0.00000000E+00  0.00000000E+00  0.00000000E+00
  0.00000000E+00  0.00000000E+00  0.00000000E+00
  0.00000000E+00  0.00000000E+00  0.00000000E+00
  0.00000000E+00  0.00000000E+00  0.00000000E+00
  0.00000000E+00  0.00000000E+00  0.00000000E+00
  0.00000000E+00  0.00000000E+00  0.00000000E+00
  0.00000000E+00  0.00000000E+00  0.00000000E+00
  0.00000000E+00  0.00000000E+00  0.00000000E+00
  0.00000000E+00  0.00000000E+00  0.00000000E+00
  0.00000000E+00  0.00000000E+00  0.00000000E+00
  0.00000000E+00  0.00000000E+00  0.00000000E+00
  0.00000000E+00  0.00000000E+00  0.00000000E+00
  0.00000000E+00  0.00000000E+00  0.00000000E+00
  0.00000000E+00  0.00000000E+00  0.00000000E+00
  0.00000000E+00  0.00000000E+00  0.00000000E+00
  0.00000000E+00  0.00000000E+00  0.00000000E+00
  0.00000000E+00  0.00000000E+00  0.00000000E+00
  0.00000000E+00  0.00000000E+00  0.00000000E+00
  0.00000000E+00  0.00000000E+00  0.00000000E+00
  0.00000000E+00  0.00000000E+00  0.00000000E+00
  0.00000000E+00  0.00000000E+00  0.00000000E+00
  0.00000000E+00  0.00000000E+00  0.00000000E+00
  0.00000000E+00  0.00000000E+00  0.00000000E+00
  0.00000000E+00  0.00000000E+00  0.00000000E+00
  0.00000000E+00  0.00000000E+00  0.00000000E+00
  0.00000000E+00  0.00000000E+00  0.00000000E+00
  0.00000000E+00  0.00000000E+00  0.00000000E+00
