B N C F O                               
   1.00000000000000     
     7.5365500567000003  -13.0537460594369996    0.0000000000000000
     7.5365500567000003   13.0537460594369996    0.0000000000000000
     0.0000000000000000    0.0000000000000000   35.1146643855649998
   B    N    C    F    O 
    36    36     3     5     2
Selective dynamics
Direct
  0.1111051122325098  0.0555522017166396  0.5000229623526933   T   T   T
  0.1111061765647420  0.2222217069634255  0.5000118204732754   T   T   T
  0.1111171363873786  0.3888909870058419  0.4999649053624142   T   T   T
  0.1111129019028463  0.5555522829707840  0.4999791567983292   T   T   T
  0.1111105992277418  0.7222188983991910  0.5000134742564378   T   T   T
  0.1111093465466478  0.8888869597886586  0.5000267931242041   T   T   T
  0.2777764530797693  0.0555511613779255  0.5000336117733838   T   T   T
  0.2777710568450683  0.2222163284758037  0.5000271458248294   T   T   T
  0.2777767984722219  0.3889009746383462  0.4999758212430118   T   T   T
  0.2777796145435304  0.5555497350448972  0.4999574388984869   T   T   T
  0.2777767582976182  0.7222166088802996  0.4999850902408999   T   T   T
  0.2777762118658027  0.8888850785493640  0.5000195138469056   T   T   T
  0.4444438525047911  0.0555518316023777  0.5000298660773044   T   T   T
  0.4444440080314055  0.2222184070683765  0.5000477816813257   T   T   T
  0.4444458420095283  0.3888992107541593  0.5000092246104109   T   T   T
  0.4444370905113884  0.5555467979195623  0.4999876293261074   T   T   T
  0.4444412450921478  0.7222121510422318  0.4999748669771303   T   T   T
  0.4444427474415436  0.8888832284553528  0.5000049963794164   T   T   T
  0.6111094920368757  0.0555517375585034  0.5000224747499296   T   T   T
  0.6111106406120880  0.2222195318574739  0.5000278717498055   T   T   T
  0.6111082887071314  0.3888893534469373  0.5000196603481446   T   T   T
  0.6111031745628407  0.5555534062588431  0.4999966573501027   T   T   T
  0.6111037132093818  0.7222132886839800  0.4999848388454011   T   T   T
  0.6111080134878095  0.8888827226097965  0.5000018931802845   T   T   T
  0.7777773969781703  0.0555525580040730  0.5000172379422041   T   T   T
  0.7777779459384228  0.2222211787380834  0.5000157101220034   T   T   T
  0.7777761040747542  0.3888877106763214  0.5000141387003167   T   T   T
  0.7777731948359220  0.5555528784682171  0.5000070510890996   T   T   T
  0.7777718828681012  0.7222172692946810  0.5000019692444888   T   T   T
  0.7777737568413466  0.8888834418521150  0.5000084563295154   T   T   T
  0.9444422092178382  0.0555538715744092  0.5000136719321677   T   T   T
  0.9444459256528703  0.2222215660945419  0.4999991163716514   T   T   T
  0.9444468891216286  0.3888884656573820  0.4999956930228670   T   T   T
  0.9444431711305078  0.5555532484992634  0.5000111198882807   T   T   T
  0.9444411229087033  0.7222186040397457  0.5000213027975771   T   T   T
  0.9444414792093646  0.8888857610294644  0.5000202115266806   T   T   T
  0.0555534022858540  0.1111090063093778  0.5000087880264061   T   T   T
  0.0555536612494490  0.2777755605650625  0.4999787437848065   T   T   T
  0.0555534640601842  0.4444424466931026  0.4999674488159372   T   T   T
  0.0555541031862278  0.6111087868618973  0.4999992139645074   T   T   T
  0.0555538347967655  0.7777754119670174  0.5000235830765414   T   T   T
  0.0555531523733252  0.9444415406553434  0.5000208895443983   T   T   T
  0.2222193043412884  0.1111063406342462  0.5000252932630858   T   T   T
  0.2222225036742517  0.2777760555753350  0.5000140069538409   T   T   T
  0.2222182811171604  0.4444443634126999  0.4999188962616340   T   T   T
  0.2222214179155032  0.6111098121083360  0.4999598549474344   T   T   T
  0.2222211563795363  0.7777757717073942  0.5000041963373062   T   T   T
  0.2222207757755592  0.9444416462247274  0.5000245892034004   T   T   T
  0.3888872993902324  0.1111080806006585  0.5000364056765628   T   T   T
  0.3888845298390903  0.2777758200880028  0.5000467398275635   T   T   T
  0.3888792756821244  0.4444319941578191  0.4999623586210341   T   T   T
  0.3888887247139823  0.6111077702528657  0.4999549165175232   T   T   T
  0.3888879953424769  0.7777750597875043  0.4999776059019478   T   T   T
  0.3888879534524212  0.9444419566318634  0.5000169153857559   T   T   T
  0.5555543677180631  0.1111085315914301  0.5000244963648605   T   T   T
  0.5555526658822382  0.2777740946867444  0.5000313088746602   T   T   T
  0.5555531667357008  0.4444405483434877  0.4999992558574990   T   T   T
  0.5555499131080731  0.6111060936274992  0.4999726290326384   T   T   T
  0.5555543399032936  0.7777759642961548  0.4999751713875838   T   T   T
  0.5555543281131802  0.9444421461345804  0.5000090567011861   T   T   T
  0.7222207806862531  0.1111087773317875  0.5000199209892325   T   T   T
  0.7222204113149735  0.2777750917290635  0.5000159536457675   T   T   T
  0.7222202608322144  0.4444415084361886  0.5000059228662406   T   T   T
  0.7222188307098411  0.6111076509200525  0.4999902164804014   T   T   T
  0.7222192607245008  0.7777744332744004  0.4999903032152030   T   T   T
  0.7222205397878356  0.9444420194702381  0.5000096003043077   T   T   T
  0.8888869768241041  0.1111086366011698  0.5000067586031889   T   T   T
  0.8888874789601059  0.2777754876514323  0.4999976339393616   T   T   T
  0.8888869399514334  0.4444419709040822  0.5000064850637893   T   T   T
  0.8888865868968336  0.6111083494037833  0.5000131292898610   T   T   T
  0.8888862431649354  0.7777747605321544  0.5000142642922120   T   T   T
  0.8888865517916501  0.9444417368119854  0.5000136571981142   T   T   T
  0.3725144322984406  0.3135440684489388  0.6730027273725578   T   T   T
  0.3537445042390391  0.3167865671408563  0.6301617818989325   T   T   T
  0.3425919816734124  0.4096408861953036  0.6178405027594287   T   T   T
  0.4608692903996023  0.3959677867565965  0.6836703486206034   T   T   T
  0.3775615116942844  0.2294052710697817  0.6820026736972516   T   T   T
  0.2957601224731524  0.3116982753183933  0.6931632088685656   T   T   T
  0.4338237647363863  0.3173609626966480  0.6116421743796331   T   T   T
  0.2677142874686853  0.2263886050314002  0.6214790449032318   T   T   T
  0.4245090134102082  0.4911614706154084  0.6123864287738168   T   T   T
  0.2534443216266732  0.3939646733440879  0.6152489759320862   T   T   T
 
  0.00000000E+00  0.00000000E+00  0.00000000E+00
  0.00000000E+00  0.00000000E+00  0.00000000E+00
  0.00000000E+00  0.00000000E+00  0.00000000E+00
  0.00000000E+00  0.00000000E+00  0.00000000E+00
  0.00000000E+00  0.00000000E+00  0.00000000E+00
  0.00000000E+00  0.00000000E+00  0.00000000E+00
  0.00000000E+00  0.00000000E+00  0.00000000E+00
  0.00000000E+00  0.00000000E+00  0.00000000E+00
  0.00000000E+00  0.00000000E+00  0.00000000E+00
  0.00000000E+00  0.00000000E+00  0.00000000E+00
  0.00000000E+00  0.00000000E+00  0.00000000E+00
  0.00000000E+00  0.00000000E+00  0.00000000E+00
  0.00000000E+00  0.00000000E+00  0.00000000E+00
  0.00000000E+00  0.00000000E+00  0.00000000E+00
  0.00000000E+00  0.00000000E+00  0.00000000E+00
  0.00000000E+00  0.00000000E+00  0.00000000E+00
  0.00000000E+00  0.00000000E+00  0.00000000E+00
  0.00000000E+00  0.00000000E+00  0.00000000E+00
  0.00000000E+00  0.00000000E+00  0.00000000E+00
  0.00000000E+00  0.00000000E+00  0.00000000E+00
  0.00000000E+00  0.00000000E+00  0.00000000E+00
  0.00000000E+00  0.00000000E+00  0.00000000E+00
  0.00000000E+00  0.00000000E+00  0.00000000E+00
  0.00000000E+00  0.00000000E+00  0.00000000E+00
  0.00000000E+00  0.00000000E+00  0.00000000E+00
  0.00000000E+00  0.00000000E+00  0.00000000E+00
  0.00000000E+00  0.00000000E+00  0.00000000E+00
  0.00000000E+00  0.00000000E+00  0.00000000E+00
  0.00000000E+00  0.00000000E+00  0.00000000E+00
  0.00000000E+00  0.00000000E+00  0.00000000E+00
  0.00000000E+00  0.00000000E+00  0.00000000E+00
  0.00000000E+00  0.00000000E+00  0.00000000E+00
  0.00000000E+00  0.00000000E+00  0.00000000E+00
  0.00000000E+00  0.00000000E+00  0.00000000E+00
  0.00000000E+00  0.00000000E+00  0.00000000E+00
  0.00000000E+00  0.00000000E+00  0.00000000E+00
  0.00000000E+00  0.00000000E+00  0.00000000E+00
  0.00000000E+00  0.00000000E+00  0.00000000E+00
  0.00000000E+00  0.00000000E+00  0.00000000E+00
  0.00000000E+00  0.00000000E+00  0.00000000E+00
  0.00000000E+00  0.00000000E+00  0.00000000E+00
  0.00000000E+00  0.00000000E+00  0.00000000E+00
  0.00000000E+00  0.00000000E+00  0.00000000E+00
  0.00000000E+00  0.00000000E+00  0.00000000E+00
  0.00000000E+00  0.00000000E+00  0.00000000E+00
  0.00000000E+00  0.00000000E+00  0.00000000E+00
  0.00000000E+00  0.00000000E+00  0.00000000E+00
  0.00000000E+00  0.00000000E+00  0.00000000E+00
  0.00000000E+00  0.00000000E+00  0.00000000E+00
  0.00000000E+00  0.00000000E+00  0.00000000E+00
  0.00000000E+00  0.00000000E+00  0.00000000E+00
  0.00000000E+00  0.00000000E+00  0.00000000E+00
  0.00000000E+00  0.00000000E+00  0.00000000E+00
  0.00000000E+00  0.00000000E+00  0.00000000E+00
  0.00000000E+00  0.00000000E+00  0.00000000E+00
  0.00000000E+00  0.00000000E+00  0.00000000E+00
  0.00000000E+00  0.00000000E+00  0.00000000E+00
  0.00000000E+00  0.00000000E+00  0.00000000E+00
  0.00000000E+00  0.00000000E+00  0.00000000E+00
  0.00000000E+00  0.00000000E+00  0.00000000E+00
  0.00000000E+00  0.00000000E+00  0.00000000E+00
  0.00000000E+00  0.00000000E+00  0.00000000E+00
  0.00000000E+00  0.00000000E+00  0.00000000E+00
  0.00000000E+00  0.00000000E+00  0.00000000E+00
  0.00000000E+00  0.00000000E+00  0.00000000E+00
  0.00000000E+00  0.00000000E+00  0.00000000E+00
  0.00000000E+00  0.00000000E+00  0.00000000E+00
  0.00000000E+00  0.00000000E+00  0.00000000E+00
  0.00000000E+00  0.00000000E+00  0.00000000E+00
  0.00000000E+00  0.00000000E+00  0.00000000E+00
  0.00000000E+00  0.00000000E+00  0.00000000E+00
  0.00000000E+00  0.00000000E+00  0.00000000E+00
  0.00000000E+00  0.00000000E+00  0.00000000E+00
  0.00000000E+00  0.00000000E+00  0.00000000E+00
  0.00000000E+00  0.00000000E+00  0.00000000E+00
  0.00000000E+00  0.00000000E+00  0.00000000E+00
  0.00000000E+00  0.00000000E+00  0.00000000E+00
  0.00000000E+00  0.00000000E+00  0.00000000E+00
  0.00000000E+00  0.00000000E+00  0.00000000E+00
  0.00000000E+00  0.00000000E+00  0.00000000E+00
  0.00000000E+00  0.00000000E+00  0.00000000E+00
  0.00000000E+00  0.00000000E+00  0.00000000E+00
