SYSTEM = hBN

#startup options
ISTART   = 1        ! job: 0-new, 1-cont, 2-samecut
ICHARG   = 1        ! charge: 1-file, 2-atom, 3-const
INIWAV   = 1        ! wfn: 0-lowe, 1-rand

#electronic relaxation
NELM     = 1      ! Maximum number of SCF iterations
ALGO     = exact    ! SCF algorithm
ISPIN    = 2        ! spin polarization: 1-no spin polarization, 2-spin polarization
EDIFF    = 1E-08    ! energy difference cutoff
ISMEAR   = 0        ! smearing method: 0-gaussian, -5->tetrahedral method, 2-MP method (2nd order)
SIGMA    = 0.05     ! smearing width
PREC     = accurate
ENCUT    = 650      ! Kinetic Energy cut-off (determined by convergence study)
#LREAL    = auto  ! Real space projection
NBANDS   = 192
KPAR     = 4

#output options
LWAVE    = .TRUE.   ! Write the wavecar file?
LCHARG   = .TRUE.   ! Write the chgcar file?
LAECHG   = .FALSE.   ! Write atomic core charge file?
LVHAR = .FALSE.      ! Write Hartree potential
LOPTICS = .TRUE.     

#dos options
NEDOS    = 1200
LORBIT   = 11
#EMIN     = -10
#EMAX     = 5

#ionic relaxation options
EDIFFG    = -0.01    ! if negative, relax until forces are below this value (in eV/A)
IBRION    = 2        ! -1 freeze; 0 AIMD, 1 quasi-Newton, 2 CG method, 3 damp MD
NSW       = 000      ! Number of relaxation steps
ISIF      = 2        ! if relaxation, allows the all to relax
POTIM     = 0.5      ! default is 0.5, scaling factor for forces

#Dipole
IDIPOL = 3
LDIPOL = .TRUE.
#DIPOL = 0.25 0.25 0.25
