B N C F O                               
   1.00000000000000     
    10.0487000000000002  -17.4050000000000011    0.0000000000000000
    10.0487000000000002   17.4050000000000011    0.0000000000000000
     0.0000000000000000    0.0000000000000000   35.0000000000000000
   B    N    C    F    O 
    64    64     3     5     2
Selective dynamics
Direct
  0.0833159523871032  0.0416512907501883  0.5015919450893946   T   T   T
  0.0833080489586706  0.1666481035439134  0.5015801154428914   T   T   T
  0.0833097538965504  0.2916485696783440  0.5015224460527534   T   T   T
  0.0833155306562929  0.4166480867669904  0.5015267369589935   T   T   T
  0.0833179725095121  0.5416502627760451  0.5015917730112065   T   T   T
  0.0833121599688269  0.6666457342030867  0.5016603060592644   T   T   T
  0.0833124771268885  0.7916466656439525  0.5016685656980826   T   T   T
  0.0833158683928161  0.9166500790440537  0.5016207628488090   T   T   T
  0.2083188162893563  0.0416500604649244  0.5016060133037925   T   T   T
  0.2083135292234104  0.1666442023355685  0.5015894226856759   T   T   T
  0.2083058355691279  0.2916576422980270  0.5015341194811995   T   T   T
  0.2083145553880499  0.4166519423411614  0.5015010636913217   T   T   T
  0.2083148593944983  0.5416467912278833  0.5015310076725612   T   T   T
  0.2083150825075890  0.6666479158564158  0.5016150865983207   T   T   T
  0.2083113902402900  0.7916456891456320  0.5016725674721485   T   T   T
  0.2083133055456017  0.9166477887178885  0.5016429782134892   T   T   T
  0.3333164427515740  0.0416468554884162  0.5016228978520445   T   T   T
  0.3333231624897621  0.1666463934480120  0.5016209719332068   T   T   T
  0.3333275759053507  0.2916584876407953  0.5015816793937162   T   T   T
  0.3333172578796635  0.4166577216540048  0.5015381249157187   T   T   T
  0.3333155156610843  0.5416484621552584  0.5015103916315553   T   T   T
  0.3333149530846526  0.6666463940666389  0.5015732172885023   T   T   T
  0.3333120803822496  0.7916452732555115  0.5016536212397469   T   T   T
  0.3333117068304929  0.9166449296412509  0.5016655097699996   T   T   T
  0.4583121207673173  0.0416444007401182  0.5016483675584027   T   T   T
  0.4583172750098967  0.1666473020243657  0.5016151991681141   T   T   T
  0.4583226057350203  0.2916530626059171  0.5015964999780351   T   T   T
  0.4583162181103262  0.4166534006509792  0.5015541790812037   T   T   T
  0.4583130896904990  0.5416482799509126  0.5015239911413971   T   T   T
  0.4583135216215979  0.6666447252247565  0.5015641791515577   T   T   T
  0.4583129287179659  0.7916445547586193  0.5016314611502395   T   T   T
  0.4583117496853930  0.9166439065764322  0.5016723333196182   T   T   T
  0.5833119283333303  0.0416432268410958  0.5016718330271104   T   T   T
  0.5833121907283925  0.1666439104193458  0.5016456934256510   T   T   T
  0.5833156064653480  0.2916484211990067  0.5016135871399854   T   T   T
  0.5833158004901691  0.4166502279968611  0.5015813777960432   T   T   T
  0.5833128426321821  0.5416464727081376  0.5015615125068962   T   T   T
  0.5833150077703522  0.6666474919013510  0.5015855765112249   T   T   T
  0.5833134744282944  0.7916449510779486  0.5016342775392602   T   T   T
  0.5833130105250319  0.9166441425106555  0.5016682689852061   T   T   T
  0.7083143643385625  0.0416450811843205  0.5016524216033318   T   T   T
  0.7083129986904027  0.1666443302255161  0.5016560951386637   T   T   T
  0.7083124451947000  0.2916441069322175  0.5016563573867074   T   T   T
  0.7083133256613863  0.4166457432005828  0.5016363933665886   T   T   T
  0.7083153599197161  0.5416473053384649  0.5016183036358299   T   T   T
  0.7083140718006433  0.6666452582259907  0.5016276395115256   T   T   T
  0.7083151368577774  0.7916459837459371  0.5016540545735424   T   T   T
  0.7083148483327406  0.9166457788120184  0.5016610482676285   T   T   T
  0.8333171839974085  0.0416488134130404  0.5016123512352451   T   T   T
  0.8333169698060487  0.1666494813146358  0.5016032939310904   T   T   T
  0.8333144322820800  0.2916467769403681  0.5016307097927424   T   T   T
  0.8333132857213528  0.4166448022951599  0.5016599016036096   T   T   T
  0.8333132649319595  0.5416445022882002  0.5016667077193304   T   T   T
  0.8333144797208192  0.6666456993164687  0.5016668548778966   T   T   T
  0.8333152188452431  0.7916466406514573  0.5016635310545539   T   T   T
  0.8333164265342887  0.9166482148680544  0.5016426620802292   T   T   T
  0.9583181079206682  0.0416521642118255  0.5015917694864100   T   T   T
  0.9583138828258768  0.1666479474104108  0.5015647185101102   T   T   T
  0.9583152303704949  0.2916490343808391  0.5015592762321148   T   T   T
  0.9583183123536401  0.4166504229764669  0.5016024505234142   T   T   T
  0.9583131785110623  0.5416453265725067  0.5016543384204866   T   T   T
  0.9583126886875064  0.6666450079678583  0.5016796907318550   T   T   T
  0.9583148159974613  0.7916474241690423  0.5016626155275006   T   T   T
  0.9583166942332255  0.9166495980705278  0.5016222258324632   T   T   T
  0.0416520436715118  0.0833198029182043  0.5015729575695360   T   T   T
  0.0416484738981850  0.2083168480088631  0.5015382770123509   T   T   T
  0.0416466076380999  0.3333163202681320  0.5015088877331806   T   T   T
  0.0416501165834831  0.4583174506385390  0.5015550687378010   T   T   T
  0.0416471461494012  0.5833137034509477  0.5016283240795971   T   T   T
  0.0416460177733882  0.7083127282873534  0.5016678748890939   T   T   T
  0.0416478911680755  0.8333150117637729  0.5016415660949249   T   T   T
  0.0416503657380645  0.9583179743016359  0.5015928776908041   T   T   T
  0.1666521174879492  0.0833194284554537  0.5015825464337240   T   T   T
  0.1666539715968867  0.2083221112097888  0.5015835504324500   T   T   T
  0.1666453433647135  0.3333183340038843  0.5014833582590725   T   T   T
  0.1666478232291126  0.4583162976761344  0.5014927435359127   T   T   T
  0.1666497378864875  0.5833163444686349  0.5015626606220849   T   T   T
  0.1666461912545643  0.7083130087897800  0.5016474432438898   T   T   T
  0.1666460332271882  0.8333134433701446  0.5016584488001712   T   T   T
  0.1666495989858561  0.9583171485838662  0.5016052725845768   T   T   T
  0.2916516015218775  0.0833181691326956  0.5016037103695297   T   T   T
  0.2916502790978370  0.2083216965340782  0.5016208941936000   T   T   T
  0.2916417371743734  0.3333103322433928  0.5015687303863956   T   T   T
  0.2916474114529919  0.4583142250944405  0.5014868255189100   T   T   T
  0.2916484998134763  0.5833148320845254  0.5015120987651471   T   T   T
  0.2916479126902516  0.7083138389280066  0.5016036797100725   T   T   T
  0.2916452236064657  0.8333118455423829  0.5016657478840543   T   T   T
  0.2916473415141070  0.9583138466157166  0.5016325680012841   T   T   T
  0.4166488562069048  0.0833142260741440  0.5016107344612522   T   T   T
  0.4166512635303263  0.2083182813446456  0.5016045919095049   T   T   T
  0.4166502815221520  0.3333178111302075  0.5015679050847766   T   T   T
  0.4166444788375614  0.4583138573674432  0.5015082720249922   T   T   T
  0.4166477076624062  0.5833147661453637  0.5015076424729017   T   T   T
  0.4166479974010997  0.7083134650427851  0.5015759260063959   T   T   T
  0.4166459867516181  0.8333115718390474  0.5016492990269228   T   T   T
  0.4166456446833706  0.9583110618652952  0.5016574823221660   T   T   T
  0.5416461886606854  0.0833107757444083  0.5016488194654016   T   T   T
  0.5416492348052415  0.2083142554729918  0.5016080295978682   T   T   T
  0.5416521791580280  0.3333176287621669  0.5015780498536131   T   T   T
  0.5416482523150137  0.4583156314508585  0.5015403102104941   T   T   T
  0.5416476585748669  0.5833149063299103  0.5015319928692392   T   T   T
  0.5416481280600962  0.7083137836938178  0.5015822033123953   T   T   T
  0.5416469288375509  0.8333121075184238  0.5016372168608996   T   T   T
  0.5416459205782260  0.9583105495023361  0.5016659779856383   T   T   T
  0.6666464939677468  0.0833110629192007  0.5016560651752684   T   T   T
  0.6666464686957170  0.2083110767859608  0.5016494927628230   T   T   T
  0.6666486505282734  0.3333132944110062  0.5016270767426647   T   T   T
  0.6666499247618987  0.4583153172135468  0.5015955875825853   T   T   T
  0.6666482252546899  0.5833137905505623  0.5015865284108969   T   T   T
  0.6666490092204640  0.7083138828985582  0.5016144776642548   T   T   T
  0.6666479637674882  0.8333127994692120  0.5016492138329980   T   T   T
  0.6666472401109402  0.9583119443902390  0.5016571742240430   T   T   T
  0.7916486312475755  0.0833146945249581  0.5016065176738991   T   T   T
  0.7916473249195448  0.2083135963252474  0.5016209997930332   T   T   T
  0.7916465816158151  0.3333121566367652  0.5016499095193225   T   T   T
  0.7916475553197273  0.4583123031292331  0.5016524518077574   T   T   T
  0.7916488054036037  0.5833134204955002  0.5016452995220533   T   T   T
  0.7916482072948270  0.7083132316101484  0.5016508741465202   T   T   T
  0.7916488637488186  0.8333140944229314  0.5016544749658465   T   T   T
  0.7916486711462980  0.9583143864874515  0.5016335578278159   T   T   T
  0.9166493209372391  0.0833160606725158  0.5015729104142537   T   T   T
  0.9166484357858025  0.2083158523796484  0.5015547948000219   T   T   T
  0.9166481865047302  0.3333161151986204  0.5015843815659196   T   T   T
  0.9166473896289844  0.4583134116786098  0.5016345516056688   T   T   T
  0.9166467754094043  0.5833121870206028  0.5016650636483249   T   T   T
  0.9166476460126205  0.7083132724931787  0.5016677378128023   T   T   T
  0.9166487305216862  0.8333148720935384  0.5016440331047320   T   T   T
  0.9166503175466758  0.9583171581035259  0.5016035222717008   T   T   T
  0.2794397854943185  0.2353869928160464  0.6753856764117074   T   T   T
  0.2653179466425826  0.2370595580894843  0.6323346319557928   T   T   T
  0.2570360870741339  0.3062954735269301  0.6197731175759174   T   T   T
  0.3457858897793997  0.2973877950714297  0.6857369783741945   T   T   T
  0.2830042265449535  0.1723730224457540  0.6846187556146290   T   T   T
  0.2220193988974870  0.2346026497864031  0.6954085514839434   T   T   T
  0.3254122860421589  0.2377697514594388  0.6138267131497273   T   T   T
  0.2006560283128564  0.1696604716397090  0.6236832677772313   T   T   T
  0.3177604031543879  0.3680542882188789  0.6140054134634809   T   T   T
  0.1906319471160245  0.2958188469525211  0.6169289423338995   T   T   T
 
  0.00000000E+00  0.00000000E+00  0.00000000E+00
  0.00000000E+00  0.00000000E+00  0.00000000E+00
  0.00000000E+00  0.00000000E+00  0.00000000E+00
  0.00000000E+00  0.00000000E+00  0.00000000E+00
  0.00000000E+00  0.00000000E+00  0.00000000E+00
  0.00000000E+00  0.00000000E+00  0.00000000E+00
  0.00000000E+00  0.00000000E+00  0.00000000E+00
  0.00000000E+00  0.00000000E+00  0.00000000E+00
  0.00000000E+00  0.00000000E+00  0.00000000E+00
  0.00000000E+00  0.00000000E+00  0.00000000E+00
  0.00000000E+00  0.00000000E+00  0.00000000E+00
  0.00000000E+00  0.00000000E+00  0.00000000E+00
  0.00000000E+00  0.00000000E+00  0.00000000E+00
  0.00000000E+00  0.00000000E+00  0.00000000E+00
  0.00000000E+00  0.00000000E+00  0.00000000E+00
  0.00000000E+00  0.00000000E+00  0.00000000E+00
  0.00000000E+00  0.00000000E+00  0.00000000E+00
  0.00000000E+00  0.00000000E+00  0.00000000E+00
  0.00000000E+00  0.00000000E+00  0.00000000E+00
  0.00000000E+00  0.00000000E+00  0.00000000E+00
  0.00000000E+00  0.00000000E+00  0.00000000E+00
  0.00000000E+00  0.00000000E+00  0.00000000E+00
  0.00000000E+00  0.00000000E+00  0.00000000E+00
  0.00000000E+00  0.00000000E+00  0.00000000E+00
  0.00000000E+00  0.00000000E+00  0.00000000E+00
  0.00000000E+00  0.00000000E+00  0.00000000E+00
  0.00000000E+00  0.00000000E+00  0.00000000E+00
  0.00000000E+00  0.00000000E+00  0.00000000E+00
  0.00000000E+00  0.00000000E+00  0.00000000E+00
  0.00000000E+00  0.00000000E+00  0.00000000E+00
  0.00000000E+00  0.00000000E+00  0.00000000E+00
  0.00000000E+00  0.00000000E+00  0.00000000E+00
  0.00000000E+00  0.00000000E+00  0.00000000E+00
  0.00000000E+00  0.00000000E+00  0.00000000E+00
  0.00000000E+00  0.00000000E+00  0.00000000E+00
  0.00000000E+00  0.00000000E+00  0.00000000E+00
  0.00000000E+00  0.00000000E+00  0.00000000E+00
  0.00000000E+00  0.00000000E+00  0.00000000E+00
  0.00000000E+00  0.00000000E+00  0.00000000E+00
  0.00000000E+00  0.00000000E+00  0.00000000E+00
  0.00000000E+00  0.00000000E+00  0.00000000E+00
  0.00000000E+00  0.00000000E+00  0.00000000E+00
  0.00000000E+00  0.00000000E+00  0.00000000E+00
  0.00000000E+00  0.00000000E+00  0.00000000E+00
  0.00000000E+00  0.00000000E+00  0.00000000E+00
  0.00000000E+00  0.00000000E+00  0.00000000E+00
  0.00000000E+00  0.00000000E+00  0.00000000E+00
  0.00000000E+00  0.00000000E+00  0.00000000E+00
  0.00000000E+00  0.00000000E+00  0.00000000E+00
  0.00000000E+00  0.00000000E+00  0.00000000E+00
  0.00000000E+00  0.00000000E+00  0.00000000E+00
  0.00000000E+00  0.00000000E+00  0.00000000E+00
  0.00000000E+00  0.00000000E+00  0.00000000E+00
  0.00000000E+00  0.00000000E+00  0.00000000E+00
  0.00000000E+00  0.00000000E+00  0.00000000E+00
  0.00000000E+00  0.00000000E+00  0.00000000E+00
  0.00000000E+00  0.00000000E+00  0.00000000E+00
  0.00000000E+00  0.00000000E+00  0.00000000E+00
  0.00000000E+00  0.00000000E+00  0.00000000E+00
  0.00000000E+00  0.00000000E+00  0.00000000E+00
  0.00000000E+00  0.00000000E+00  0.00000000E+00
  0.00000000E+00  0.00000000E+00  0.00000000E+00
  0.00000000E+00  0.00000000E+00  0.00000000E+00
  0.00000000E+00  0.00000000E+00  0.00000000E+00
  0.00000000E+00  0.00000000E+00  0.00000000E+00
  0.00000000E+00  0.00000000E+00  0.00000000E+00
  0.00000000E+00  0.00000000E+00  0.00000000E+00
  0.00000000E+00  0.00000000E+00  0.00000000E+00
  0.00000000E+00  0.00000000E+00  0.00000000E+00
  0.00000000E+00  0.00000000E+00  0.00000000E+00
  0.00000000E+00  0.00000000E+00  0.00000000E+00
  0.00000000E+00  0.00000000E+00  0.00000000E+00
  0.00000000E+00  0.00000000E+00  0.00000000E+00
  0.00000000E+00  0.00000000E+00  0.00000000E+00
  0.00000000E+00  0.00000000E+00  0.00000000E+00
  0.00000000E+00  0.00000000E+00  0.00000000E+00
  0.00000000E+00  0.00000000E+00  0.00000000E+00
  0.00000000E+00  0.00000000E+00  0.00000000E+00
  0.00000000E+00  0.00000000E+00  0.00000000E+00
  0.00000000E+00  0.00000000E+00  0.00000000E+00
  0.00000000E+00  0.00000000E+00  0.00000000E+00
  0.00000000E+00  0.00000000E+00  0.00000000E+00
  0.00000000E+00  0.00000000E+00  0.00000000E+00
  0.00000000E+00  0.00000000E+00  0.00000000E+00
  0.00000000E+00  0.00000000E+00  0.00000000E+00
  0.00000000E+00  0.00000000E+00  0.00000000E+00
  0.00000000E+00  0.00000000E+00  0.00000000E+00
  0.00000000E+00  0.00000000E+00  0.00000000E+00
  0.00000000E+00  0.00000000E+00  0.00000000E+00
  0.00000000E+00  0.00000000E+00  0.00000000E+00
  0.00000000E+00  0.00000000E+00  0.00000000E+00
  0.00000000E+00  0.00000000E+00  0.00000000E+00
  0.00000000E+00  0.00000000E+00  0.00000000E+00
  0.00000000E+00  0.00000000E+00  0.00000000E+00
  0.00000000E+00  0.00000000E+00  0.00000000E+00
  0.00000000E+00  0.00000000E+00  0.00000000E+00
  0.00000000E+00  0.00000000E+00  0.00000000E+00
  0.00000000E+00  0.00000000E+00  0.00000000E+00
  0.00000000E+00  0.00000000E+00  0.00000000E+00
  0.00000000E+00  0.00000000E+00  0.00000000E+00
  0.00000000E+00  0.00000000E+00  0.00000000E+00
  0.00000000E+00  0.00000000E+00  0.00000000E+00
  0.00000000E+00  0.00000000E+00  0.00000000E+00
  0.00000000E+00  0.00000000E+00  0.00000000E+00
  0.00000000E+00  0.00000000E+00  0.00000000E+00
  0.00000000E+00  0.00000000E+00  0.00000000E+00
  0.00000000E+00  0.00000000E+00  0.00000000E+00
  0.00000000E+00  0.00000000E+00  0.00000000E+00
  0.00000000E+00  0.00000000E+00  0.00000000E+00
  0.00000000E+00  0.00000000E+00  0.00000000E+00
  0.00000000E+00  0.00000000E+00  0.00000000E+00
  0.00000000E+00  0.00000000E+00  0.00000000E+00
  0.00000000E+00  0.00000000E+00  0.00000000E+00
  0.00000000E+00  0.00000000E+00  0.00000000E+00
  0.00000000E+00  0.00000000E+00  0.00000000E+00
  0.00000000E+00  0.00000000E+00  0.00000000E+00
  0.00000000E+00  0.00000000E+00  0.00000000E+00
  0.00000000E+00  0.00000000E+00  0.00000000E+00
  0.00000000E+00  0.00000000E+00  0.00000000E+00
  0.00000000E+00  0.00000000E+00  0.00000000E+00
  0.00000000E+00  0.00000000E+00  0.00000000E+00
  0.00000000E+00  0.00000000E+00  0.00000000E+00
  0.00000000E+00  0.00000000E+00  0.00000000E+00
  0.00000000E+00  0.00000000E+00  0.00000000E+00
  0.00000000E+00  0.00000000E+00  0.00000000E+00
  0.00000000E+00  0.00000000E+00  0.00000000E+00
  0.00000000E+00  0.00000000E+00  0.00000000E+00
  0.00000000E+00  0.00000000E+00  0.00000000E+00
  0.00000000E+00  0.00000000E+00  0.00000000E+00
  0.00000000E+00  0.00000000E+00  0.00000000E+00
  0.00000000E+00  0.00000000E+00  0.00000000E+00
  0.00000000E+00  0.00000000E+00  0.00000000E+00
  0.00000000E+00  0.00000000E+00  0.00000000E+00
  0.00000000E+00  0.00000000E+00  0.00000000E+00
  0.00000000E+00  0.00000000E+00  0.00000000E+00
  0.00000000E+00  0.00000000E+00  0.00000000E+00
  0.00000000E+00  0.00000000E+00  0.00000000E+00
  0.00000000E+00  0.00000000E+00  0.00000000E+00
