C F O                                   
   1.00000000000000     
    23.3527724799999987    0.0000000000000000    0.0000000000000000
     0.0000000000000000   30.6677046000000004    0.0000000000000000
     0.0000000000000000    0.0000000000000000   23.2588903900000012
   C    F    O 
     8    15     2
Selective dynamics
Direct
  0.4859433233547080  0.5544530068700537  0.5041063584687103   T   T   T
  0.5210564675719697  0.5114012595196676  0.5023027173202366   T   T   T
  0.5226359535666931  0.5957695079354172  0.4927336068347898   T   T   T
  0.4833940916679956  0.4700020437032353  0.4945569072184789   T   T   T
  0.5142457269834702  0.4269168535912221  0.5109023044482460   T   T   T
  0.4858590549786233  0.3849457186540794  0.4878943785195685   T   T   T
  0.4938774262711221  0.6390249474145476  0.5113277589425983   T   T   T
  0.5061454894519780  0.3431213678685200  0.5204440779605085   T   T   T
  0.4442380930505355  0.5525994394435270  0.4637557923224584   T   T   T
  0.4612018469181246  0.5582154478203754  0.5564791377675812   T   T   T
  0.5586270309658451  0.5138851099046537  0.4581034747548399   T   T   T
  0.5506890714415809  0.5079222006279679  0.5521051259519448   T   T   T
  0.4360801048909417  0.4746651744135169  0.5277590711033590   T   T   T
  0.4670300633274236  0.4677992962061712  0.4387543427094096   T   T   T
  0.5689281377121356  0.4295952912674308  0.4914449326699730   T   T   T
  0.5155878887904509  0.4243329707438041  0.5693250129300643   T   T   T
  0.5727721603372781  0.5922983187486290  0.5216103916915903   T   T   T
  0.5336739374902795  0.5985054570372922  0.4358455115552305   T   T   T
  0.4278261460554669  0.3909212097832881  0.4915824521827389   T   T   T
  0.4984582266063655  0.3814417211282384  0.4304962014340354   T   T   T
  0.4407561408628830  0.6415314281425423  0.4897990097274919   T   T   T
  0.4913840026003583  0.6421374408113517  0.5685981281367278   T   T   T
  0.5247781683763629  0.6724334413597510  0.4911192511312099   T   T   T
  0.5583239877350348  0.3358791828087789  0.5142985913734575   T   T   T
  0.4685816932273976  0.3230966567299688  0.5474840607107726   T   T   T
 
  0.00000000E+00  0.00000000E+00  0.00000000E+00
  0.00000000E+00  0.00000000E+00  0.00000000E+00
  0.00000000E+00  0.00000000E+00  0.00000000E+00
  0.00000000E+00  0.00000000E+00  0.00000000E+00
  0.00000000E+00  0.00000000E+00  0.00000000E+00
  0.00000000E+00  0.00000000E+00  0.00000000E+00
  0.00000000E+00  0.00000000E+00  0.00000000E+00
  0.00000000E+00  0.00000000E+00  0.00000000E+00
  0.00000000E+00  0.00000000E+00  0.00000000E+00
  0.00000000E+00  0.00000000E+00  0.00000000E+00
  0.00000000E+00  0.00000000E+00  0.00000000E+00
  0.00000000E+00  0.00000000E+00  0.00000000E+00
  0.00000000E+00  0.00000000E+00  0.00000000E+00
  0.00000000E+00  0.00000000E+00  0.00000000E+00
  0.00000000E+00  0.00000000E+00  0.00000000E+00
  0.00000000E+00  0.00000000E+00  0.00000000E+00
  0.00000000E+00  0.00000000E+00  0.00000000E+00
  0.00000000E+00  0.00000000E+00  0.00000000E+00
  0.00000000E+00  0.00000000E+00  0.00000000E+00
  0.00000000E+00  0.00000000E+00  0.00000000E+00
  0.00000000E+00  0.00000000E+00  0.00000000E+00
  0.00000000E+00  0.00000000E+00  0.00000000E+00
  0.00000000E+00  0.00000000E+00  0.00000000E+00
  0.00000000E+00  0.00000000E+00  0.00000000E+00
  0.00000000E+00  0.00000000E+00  0.00000000E+00
